 $CONTRL SCFTYP=GVB RUNTYP=ENERGY ICHARG=0 MULT=1 NOSYM=1 ICUT=11
  MAXIT=500 ISPHER=1 $END
 $SYSTEM MWORDS=156 $END
 $SCF NCO=14 NPAIR=10 DIRSCF=.TRUE. $END
 $GUESS GUESS=MOREAD NORB=90 $END
 $DATA
GAMESS inp file produced by MOKIT,nif=90,nbf=90
C1   1
Cr   24.         0.00000000         0.00000000         0.00000000
   S  8
   1   2.54477807E+05   2.42904776E-04   0.00000000E+00
   2   3.81317971E+04   1.88435236E-03   0.00000000E+00
   3   8.67529306E+03   9.80095844E-03   0.00000000E+00
   4   2.45500998E+03   3.98250087E-02   0.00000000E+00
   5   7.99162178E+02   1.29405437E-01   0.00000000E+00
   6   2.86900215E+02   3.06290018E-01   0.00000000E+00
   7   1.11254132E+02   4.34628350E-01   0.00000000E+00
   8   4.38641526E+01   2.24695629E-01   0.00000000E+00
   S  4
   1   2.79326692E+02  -2.43633579E-02   0.00000000E+00
   2   8.62747324E+01  -1.15114954E-01   0.00000000E+00
   3   1.35557561E+01   5.50922663E-01   0.00000000E+00
   4   5.69781128E+00   5.36113547E-01   0.00000000E+00
   S  2
   1   8.56365826E+00  -3.71230177E-01   0.00000000E+00
   2   1.39882968E+00   1.16811695E+00   0.00000000E+00
   S  1
   1   5.72881711E-01   1.00000000E+00   0.00000000E+00
   S  1
   1   9.00961713E-02   1.00000000E+00   0.00000000E+00
   S  1
   1   3.41258851E-02   1.00000000E+00   0.00000000E+00
   P  6
   1   1.30643989E+03   2.82928007E-03   0.00000000E+00
   2   3.09253114E+02   2.27766292E-02   0.00000000E+00
   3   9.89962740E+01   1.05645619E-01   0.00000000E+00
   4   3.67569165E+01   2.99499449E-01   0.00000000E+00
   5   1.45666571E+01   4.77062454E-01   0.00000000E+00
   6   5.87399374E+00   2.76542344E-01   0.00000000E+00
   P  3
   1   2.28909997E+01  -1.94121061E-02   0.00000000E+00
   2   3.08550018E+00   3.86188758E-01   0.00000000E+00
   3   1.21323291E+00   6.76239089E-01   0.00000000E+00
   P  1
   1   4.49316807E-01   1.00000000E+00   0.00000000E+00
   D  4
   1   4.37200745E+01   2.20932593E-02   0.00000000E+00
   2   1.23912427E+01   1.28014388E-01   0.00000000E+00
   3   4.26394420E+00   3.86529103E-01   0.00000000E+00
   4   1.55252218E+00   6.41033014E-01   0.00000000E+00
   D  1
   1   5.37619295E-01   1.00000000E+00   0.00000000E+00
   D  1
   1   1.64931731E-01   1.00000000E+00   0.00000000E+00
   P  1
   1   1.20675000E-01   1.00000000E+00   0.00000000E+00
   D  1
   1   5.10000000E-02   1.00000000E+00   0.00000000E+00
   F  1
   1   1.14700000E+00   1.00000000E+00   0.00000000E+00

Cr   24.         0.00000000         0.00000000         2.00000001
   S  8
   1   2.54477807E+05   2.42904776E-04   0.00000000E+00
   2   3.81317971E+04   1.88435236E-03   0.00000000E+00
   3   8.67529306E+03   9.80095844E-03   0.00000000E+00
   4   2.45500998E+03   3.98250087E-02   0.00000000E+00
   5   7.99162178E+02   1.29405437E-01   0.00000000E+00
   6   2.86900215E+02   3.06290018E-01   0.00000000E+00
   7   1.11254132E+02   4.34628350E-01   0.00000000E+00
   8   4.38641526E+01   2.24695629E-01   0.00000000E+00
   S  4
   1   2.79326692E+02  -2.43633579E-02   0.00000000E+00
   2   8.62747324E+01  -1.15114954E-01   0.00000000E+00
   3   1.35557561E+01   5.50922663E-01   0.00000000E+00
   4   5.69781128E+00   5.36113547E-01   0.00000000E+00
   S  2
   1   8.56365826E+00  -3.71230177E-01   0.00000000E+00
   2   1.39882968E+00   1.16811695E+00   0.00000000E+00
   S  1
   1   5.72881711E-01   1.00000000E+00   0.00000000E+00
   S  1
   1   9.00961713E-02   1.00000000E+00   0.00000000E+00
   S  1
   1   3.41258851E-02   1.00000000E+00   0.00000000E+00
   P  6
   1   1.30643989E+03   2.82928007E-03   0.00000000E+00
   2   3.09253114E+02   2.27766292E-02   0.00000000E+00
   3   9.89962740E+01   1.05645619E-01   0.00000000E+00
   4   3.67569165E+01   2.99499449E-01   0.00000000E+00
   5   1.45666571E+01   4.77062454E-01   0.00000000E+00
   6   5.87399374E+00   2.76542344E-01   0.00000000E+00
   P  3
   1   2.28909997E+01  -1.94121061E-02   0.00000000E+00
   2   3.08550018E+00   3.86188758E-01   0.00000000E+00
   3   1.21323291E+00   6.76239089E-01   0.00000000E+00
   P  1
   1   4.49316807E-01   1.00000000E+00   0.00000000E+00
   D  4
   1   4.37200745E+01   2.20932593E-02   0.00000000E+00
   2   1.23912427E+01   1.28014388E-01   0.00000000E+00
   3   4.26394420E+00   3.86529103E-01   0.00000000E+00
   4   1.55252218E+00   6.41033014E-01   0.00000000E+00
   D  1
   1   5.37619295E-01   1.00000000E+00   0.00000000E+00
   D  1
   1   1.64931731E-01   1.00000000E+00   0.00000000E+00
   P  1
   1   1.20675000E-01   1.00000000E+00   0.00000000E+00
   D  1
   1   5.10000000E-02   1.00000000E+00   0.00000000E+00
   F  1
   1   1.14700000E+00   1.00000000E+00   0.00000000E+00

 $END
 $VEC
 1  1-6.96045137E-01-3.79860752E-03 1.37847432E-03-1.34179307E-03 2.54598312E-04
 1  2-9.93818753E-05-1.21113877E-11-3.07885448E-11-2.49710983E-04-1.49634909E-11
 1  3 1.38157435E-11 6.14075086E-06-4.33295196E-12 4.55394787E-12-5.61372511E-05
 1  4 7.62134610E-07 7.62134610E-07-1.52426922E-06 1.09145022E-17-5.23299752E-14
 1  5 6.98032764E-14 1.11885541E-05 1.11885540E-05-2.23771081E-05 7.17208672E-18
 1  6-1.02629120E-13 1.40325631E-13-5.88347090E-05-5.88347090E-05 1.17669418E-04
 1  7 3.98975330E-18-1.84887492E-14 1.38110396E-14-1.77009634E-13 1.23372844E-13
 1  8 4.06873506E-05 1.21077278E-05 1.21077277E-05-2.42154555E-05 2.57930065E-19
 1  9-8.00012962E-15 1.50356539E-14 1.15789275E-14-1.93380270E-14 1.94841348E-05
 1 10-8.64810223E-15-1.30703550E-05 5.17829979E-15-1.30703550E-05-2.07130612E-14
 1 11 3.45927880E-14 8.64185613E-20-7.15563209E-01-3.90056399E-03 1.42538664E-03
 1 12-1.37319115E-03 3.00349011E-04-1.08200372E-04 3.12793857E-11-5.57395474E-11
 1 13 2.49853104E-04-5.43060321E-12 1.61376201E-11-9.06898098E-06-1.97069602E-12
 1 14 5.47064145E-12 5.76099325E-05 5.47602915E-07 5.47602915E-07-1.09520583E-06
 1 15 4.61135040E-19 4.72483052E-14-9.47911343E-14 1.18301265E-05 1.18301265E-05
 1 16-2.36602530E-05-4.36184377E-20 6.26261706E-14-1.07843311E-13-6.19897950E-05
 1 17-6.19897950E-05 1.23979590E-04 2.17142779E-19 9.05760216E-15-3.73115707E-15
 1 18-1.43814654E-14 6.65249525E-14-6.56342187E-05 1.08371422E-05 1.08371422E-05
 1 19-2.16742844E-05 2.06621598E-22 3.23419676E-15-1.87615610E-14 1.39259493E-14
 1 20-2.55058402E-14-1.89808805E-05-1.14065406E-14 1.27327617E-05 6.22789591E-15
 1 21 1.27327617E-05-2.49115175E-14 4.56262161E-14-4.68698754E-20
 2  1-7.15621352E-01-3.74053668E-03 1.71530571E-03-1.15202593E-03 1.65360415E-03
 2  2-3.16524863E-04 3.70957566E-11-4.06220136E-11-9.18020399E-06-2.61545104E-11
 2  3 5.80312735E-12 1.06324066E-04-8.32682031E-12 2.27433185E-12-5.42812339E-05
 2  4-9.87928725E-06-9.87928725E-06 1.97585745E-05-1.09134292E-17-8.25369555E-14
 2  5 4.21429760E-14 2.70657190E-05 2.70657191E-05-5.41314381E-05-7.41046599E-18
 2  6-1.96435052E-13 8.60601476E-14-1.16685127E-04-1.16685127E-04 2.33370254E-04
 2  7-4.01490473E-18-1.34754000E-14 3.38061432E-15-1.88452924E-13 2.76225828E-14
 2  8 9.01657885E-04-4.54777606E-05-4.54777605E-05 9.09555211E-05-2.82245630E-19
 2  9-5.30079570E-16 1.43823932E-14 2.26819199E-14-1.27957955E-14-1.40202571E-05
 2 10-5.72230200E-15 9.40507438E-06 1.01437326E-14 9.40507438E-06-4.05747214E-14
 2 11 2.28896632E-14-1.73315338E-20 6.96104905E-01 3.63408265E-03-1.67659204E-03
 2 12 1.11463332E-03-1.64607695E-03 3.13761869E-04 3.75659637E-11-5.24719369E-11
 2 13-2.28494974E-06-1.03765524E-11 1.28141694E-11 1.06115558E-04-3.53955094E-12
 2 14 4.41348009E-12-5.27282021E-05 9.85719205E-06 9.85719205E-06-1.97143841E-05
 2 15-4.80421787E-19 9.18754254E-14-6.62969237E-14-2.67214166E-05-2.67214165E-05
 2 16 5.34428331E-05 2.49959957E-20 1.09650798E-13-7.55578777E-14 1.15045750E-04
 2 17 1.15045750E-04-2.30091500E-04-2.18123597E-19 2.17374244E-14 3.53024754E-15
 2 18-9.73011044E-14 4.38380326E-14 9.00194224E-04 4.58066223E-05 4.58066224E-05
 2 19-9.16132447E-05 3.45999931E-21 3.96000168E-14-1.80273417E-14 2.36224456E-14
 2 20-1.76488328E-14-1.48109017E-05-7.89279573E-15 9.93545490E-06 1.05642802E-14
 2 21 9.93545490E-06-4.22571167E-14 3.15711896E-14 4.86616428E-20
 3  1-6.21548472E-02 1.75707187E-01 2.83660054E-01 1.98234508E-01 6.51358442E-03
 3  2-1.82514862E-03-7.73120470E-11-6.87156698E-11 4.29943401E-01 3.14586138E-11
 3  3-2.30295763E-11 1.25467053E-02 1.04471556E-11-6.05886046E-12 4.11015638E-04
 3  4-4.50918207E-04-4.50918206E-04 9.01836413E-04 4.69707654E-17 7.72806258E-14
 3  5-1.29317795E-13-8.70323040E-04-8.70323040E-04 1.74064608E-03 2.01542962E-17
 3  6 2.32372629E-13-2.01750145E-13-3.77623103E-04-3.77623103E-04 7.55246206E-04
 3  7 1.42345518E-17-1.79339103E-15-5.82041327E-14 1.07444119E-13-4.13662115E-13
 3  8 1.01099067E-03-1.68680959E-05-1.68680958E-05 3.37361917E-05-1.61062105E-19
 3  9-3.69787882E-14-2.19756167E-14-2.80188338E-14 3.08113939E-14 8.13201988E-04
 3 10 1.38049880E-14-5.45512477E-04-1.25066536E-14-5.45512477E-04 5.00978638E-14
 3 11-5.51428108E-14-3.49035293E-18-6.21584160E-02 1.75707803E-01 2.83611239E-01
 3 12 1.98309456E-01 6.17800546E-03-1.88288379E-03 5.51074324E-11 2.65043949E-11
 3 13-4.29949760E-01 1.06536402E-11-2.86909562E-11-1.25307356E-02 2.74753534E-12
 3 14-9.07812128E-12-4.20606389E-04-5.31473245E-04-5.31473245E-04 1.06294649E-03
 3 15 2.17292655E-17-1.14684757E-13 1.66587530E-13-7.32560380E-04-7.32560380E-04
 3 16 1.46512076E-03 9.65854823E-18-1.03472546E-13 1.72042588E-13-3.93771252E-04
 3 17-3.93771252E-04 7.87542504E-04-3.75255074E-18-4.73364257E-14 1.33204312E-14
 3 18 2.53908462E-13-9.82137250E-14-7.30615037E-04-1.24011999E-05-1.24011999E-05
 3 19 2.48023998E-05 1.98933783E-18-7.53968824E-14-3.21394029E-14-2.39756472E-14
 3 20 4.69481214E-14-6.03708590E-04 2.09814892E-14 4.04980034E-04-1.07420085E-14
 3 21 4.04980034E-04 4.29087146E-14-8.39690038E-14 2.58469347E-19
 4  1-7.51162663E-03-1.98354836E-02 4.21987533E-01 3.02448834E-01 3.60284516E-03
 4  2-3.84788198E-03-1.72638994E-10 6.48169705E-13 1.66909172E-02 3.52118035E-11
 4  3 1.11163200E-11 9.96355647E-02 1.27966705E-11 3.32492767E-12 3.03481368E-02
 4  4 3.40854689E-05 3.40854690E-05-6.81709379E-05-6.64886807E-18 9.90689008E-14
 4  5 2.13089648E-14-4.70784370E-04-4.70784370E-04 9.41568740E-04-1.79025980E-17
 4  6 3.07310244E-13 6.10858366E-14 9.77926110E-04 9.77926110E-04-1.95585222E-03
 4  7-5.08005334E-18-1.88422375E-14 4.74285138E-15 1.49228904E-14 8.06990104E-14
 4  8-4.23512631E-03-2.50402957E-04-2.50402957E-04 5.00805914E-04-9.22796628E-19
 4  9-1.98056427E-14-1.12827985E-14-3.67688857E-14-5.88907094E-15 2.19378512E-04
 4 10-2.58885819E-15-1.47163580E-04-1.64085396E-14-1.47163580E-04 6.57391764E-14
 4 11 1.04898760E-14-9.08525401E-19 7.51505908E-03 1.98133280E-02-4.21980065E-01
 4 12-3.02316665E-01-3.97221160E-03 4.17811506E-03-3.61105214E-11 1.97895205E-11
 4 13 1.66872087E-02 1.77253286E-11-8.93056310E-13 9.96770058E-02 5.74839285E-12
 4 14-4.52510414E-13 3.01382617E-02 2.24381556E-05 2.24381555E-05-4.48763111E-05
 4 15-3.47439540E-17-1.49751590E-13-1.73179919E-14 4.52202801E-04 4.52202802E-04
 4 16-9.04405603E-04-2.49057087E-17-1.60082565E-13-1.79352259E-14-1.00777223E-03
 4 17-1.00777224E-03 2.01554447E-03 7.87817030E-18-3.72828652E-14-1.60516946E-14
 4 18 2.65935419E-13 4.59832431E-14-3.94581455E-03 2.26258728E-04 2.26258729E-04
 4 19-4.52517457E-04-1.97714612E-18-1.22012049E-13-1.32408803E-14-3.28232492E-14
 4 20-3.63842919E-15 2.19115647E-04-1.59539733E-15-1.46987244E-04-1.46434419E-14
 4 21-1.46987244E-04 5.86804517E-14 6.47686233E-15 4.15252669E-18
 5  1 2.01578078E-02-6.74448592E-02 2.49431276E-04 5.60925074E-04 6.11186129E-03
 5  2 8.59898534E-04-3.61009719E-11 1.20417789E-10 7.45116739E-01-8.89753679E-13
 5  3-3.45291939E-11-1.96102641E-01 1.91447332E-13-1.19310332E-11-6.95919469E-02
 5  4-1.10025329E-04-1.10025328E-04 2.20050657E-04-9.98898060E-17-3.24777652E-14
 5  5-1.22007185E-13 5.41045150E-04 5.41045150E-04-1.08209030E-03-6.54952814E-17
 5  6-2.39016958E-14-3.11215265E-13-5.61961050E-04-5.61961050E-04 1.12392210E-03
 5  7-3.93642471E-17-2.14935472E-14-3.15318417E-15-1.26080057E-13-1.33325329E-13
 5  8 4.42664332E-03-2.66993831E-04-2.66993832E-04 5.33987663E-04-2.91903042E-18
 5  9-2.48154551E-14 7.48479021E-15 4.89640785E-15 4.00972323E-14-3.19296056E-04
 5 10 1.79273916E-14 2.14190306E-04 2.19189641E-15 2.14190306E-04-8.76111688E-15
 5 11-7.17234738E-14-4.99679525E-18-2.01557246E-02 6.74779256E-02-1.56397128E-04
 5 12-8.56337762E-04-6.17191159E-03-8.46717591E-04 5.02629338E-11 3.96072475E-11
 5 13 7.45178066E-01-8.54418591E-12-2.52174608E-11-1.96367509E-01-3.10131934E-12
 5 14-8.09164657E-12-6.90347022E-02 2.73736039E-04 2.73736039E-04-5.47472078E-04
 5 15 3.88218089E-18 3.37383277E-14 1.79976066E-13-6.69721485E-04-6.69721485E-04
 5 16 1.33944297E-03-6.94033383E-19 4.64821176E-14 1.88646531E-13 4.79494996E-04
 5 17 4.79494997E-04-9.58989993E-04-2.46149294E-18-1.15197389E-14 3.25398556E-14
 5 18 4.81369638E-14-2.51144119E-13 3.97975626E-03 1.71526468E-04 1.71526467E-04
 5 19-3.43052935E-04-1.67295064E-19-2.80999384E-14 8.75769508E-14 1.23371680E-14
 5 20 4.30200087E-14-4.98792004E-04 1.92220684E-14 3.34599848E-04 5.51345859E-15
 5 21 3.34599848E-04-2.20655064E-14-7.69394667E-14-4.75409029E-18
 6  1 2.14071955E-01-7.31613138E-01 1.28310517E-01 1.15795422E-01-3.54263486E-04
 6  2 2.55817485E-04-2.54102133E-10-1.59191827E-10 2.96553373E-01 5.79651391E-11
 6  3 4.33188305E-11-8.19532428E-02 2.06865008E-11 1.50520076E-11-2.82932168E-02
 6  4 2.71848986E-04 2.71848986E-04-5.43697972E-04-3.25341468E-17 1.94020701E-13
 6  5 9.48082530E-14 1.09689262E-04 1.09689262E-04-2.19378524E-04-2.43858879E-17
 6  6 5.28295157E-13 3.25108694E-13-1.12460670E-04-1.12460671E-04 2.24921341E-04
 6  7-1.36911927E-17-1.15516769E-14-1.97890744E-14 1.30674644E-13 5.31635192E-14
 6  8-8.57128574E-04-7.25099880E-05-7.25099880E-05 1.45019976E-04-1.52607798E-18
 6  9-9.51260486E-15-4.76196347E-14-6.56717727E-14-3.67227512E-14-1.50286907E-04
 6 10-1.64167340E-14 1.00815522E-04-2.93596338E-14 1.00815522E-04 1.17467563E-13
 6 11 6.56854748E-14-4.24560204E-18 2.14167311E-01-7.31530658E-01 1.29843109E-01
 6 12 1.13731199E-01 2.26410613E-03-5.29079283E-04-1.05110358E-10 3.59105344E-11
 6 13-2.96601614E-01 3.84842805E-11 1.04952346E-11 8.21215048E-02 1.27512050E-11
 6 14 2.86433029E-12 2.81788667E-02 1.56313098E-04 1.56313099E-04-3.12626197E-04
 6 15 1.26563510E-17-2.83013902E-13-1.37296764E-13 1.19927038E-04 1.19927037E-04
 6 16-2.39854075E-04 6.80064387E-18-3.10040656E-13-1.34720662E-13-4.94204935E-05
 6 17-4.94204935E-05 9.88409870E-05-2.24049816E-18-4.99748974E-14-6.03958893E-14
 6 18 4.01672336E-13 3.26988858E-13-2.94506997E-04-1.40367386E-04-1.40367386E-04
 6 19 2.80734772E-04 7.79399863E-20-1.75266876E-13-1.32519139E-13-6.67553773E-14
 6 20-2.71011134E-14 1.30798896E-04-1.21213277E-14-8.77425669E-05-2.98641201E-14
 6 21-8.77425669E-05 1.19425857E-13 4.84812869E-14 2.04050681E-18
 7  1-2.32071252E-01 7.93853109E-01-1.41503910E-01-1.28772052E-01 5.88438640E-03
 7  2 2.97644079E-04 4.25096326E-10-1.67748406E-10 6.56990917E-02-1.10567111E-10
 7  3 7.27025093E-11-4.80712528E-02-3.86941825E-11 2.40280953E-11-1.61395262E-02
 7  4-1.20927834E-04-1.20927835E-04 2.41855669E-04 1.34111626E-17-3.67398078E-13
 7  5 3.43745146E-13 3.64200467E-04 3.64200467E-04-7.28400934E-04 1.55520279E-17
 7  6-9.80670655E-13 7.12405377E-13-8.95360640E-04-8.95360640E-04 1.79072128E-03
 7  7 5.95455129E-18 7.88250900E-15 6.25348719E-14-3.38452483E-13 6.01144740E-13
 7  8 5.45254771E-03-1.03790449E-04-1.03790450E-04 2.07580899E-04 8.87883100E-19
 7  9 2.43997149E-14 6.54991715E-14 1.22196840E-13-9.60695767E-14-1.72582558E-04
 7 10-4.29737145E-14 1.15771899E-04 5.46386012E-14 1.15771899E-04-2.18582866E-13
 7 11 1.71864577E-13 7.41703271E-19 2.32219809E-01-7.93763468E-01 1.43816795E-01
 7 12 1.25916358E-01-5.20182282E-03-4.23813961E-04 1.57645590E-10-2.65926943E-10
 7 13 6.57218552E-02-7.07455220E-11 7.61065323E-11-4.81676525E-02-2.31214021E-11
 7 14 2.58271694E-11-1.58759859E-02 9.20338710E-05 9.20338710E-05-1.84067742E-04
 7 15 1.91290527E-17 5.28733250E-13-4.61172422E-13-3.73246096E-04-3.73246096E-04
 7 16 7.46492192E-04 6.95368886E-18 5.71267638E-13-5.26767337E-13 8.04145675E-04
 7 17 8.04145675E-04-1.60829135E-03-1.61534143E-18 1.01233630E-13-2.62974076E-14
 7 18-7.55232326E-13 3.47188201E-13 5.21403659E-03 1.19629491E-04 1.19629492E-04
 7 19-2.39258983E-04 2.50219306E-19 3.05458435E-13-1.08809820E-13 1.25065349E-13
 7 20-1.23062017E-13-2.24168437E-04-5.50490372E-14 1.50376759E-04 5.59166013E-14
 7 21 1.50376759E-04-2.23709375E-13 2.20154059E-13-1.51227874E-18
 8  1-1.95869401E-10 5.10432202E-10-1.75952914E-10-1.43477684E-10 1.47391340E-12
 8  2 7.63298882E-13-7.44061829E-01 2.95039385E-02-1.27429163E-11 2.31715430E-01
 8  3-9.18810428E-03-6.12172264E-12 7.92750832E-02-3.14345804E-03-2.35541045E-12
 8  4-9.71380912E-14-9.65109318E-14 1.93649023E-13 1.42568670E-16 1.02928097E-03
 8  5-4.08135999E-05 2.65624549E-13 2.64262559E-13-5.29887108E-13-1.63668221E-16
 8  6 2.29064675E-03-9.08299510E-05-4.63929285E-13-4.63174564E-13 9.27103849E-13
 8  7-3.19747835E-18 1.19096410E-04-4.72247433E-06 1.42603851E-03-5.65460411E-05
 8  8 3.24990016E-12-3.94295623E-15-4.18550976E-15 8.12846599E-15 1.21877968E-17
 8  9 1.41003158E-04-5.59113253E-06-3.06298638E-04 1.21455175E-05-1.14476824E-13
 8 10 5.43164057E-06 7.66279069E-14-1.36980915E-04 7.69588693E-14 5.47923660E-04
 8 11-2.17265623E-05-5.15012117E-17 6.37617875E-11-1.33692206E-10 5.75443132E-11
 8 12 4.51612605E-11-2.90753295E-12-4.10419259E-13-7.44311235E-01 2.95138273E-02
 8 13 6.90361496E-11 2.32637021E-01-9.22464761E-03-5.30290222E-11 7.82467567E-02
 8 14-3.10268226E-03-1.70826532E-11 2.98340791E-14 2.97110096E-14-5.95450887E-14
 8 15 2.25235288E-16-1.44682623E-03 5.73703280E-05-1.91931237E-13-1.91204423E-13
 8 16 3.83135660E-13-1.78579716E-16-1.61880746E-03 6.41898198E-05 5.09824201E-13
 8 17 5.09453689E-13-1.01927789E-12 6.89344221E-17-1.14724623E-04 4.54912232E-06
 8 18 1.35591769E-03-5.37655742E-05 2.81737923E-12 4.71277939E-14 4.73069856E-14
 8 19-9.44347795E-14-1.47690256E-17-4.79060530E-04 1.89959649E-05-3.73333958E-04
 8 20 1.48036379E-05-1.20797772E-13 6.62038812E-06 8.05290578E-14-1.66960022E-04
 8 21 8.15381600E-14 6.67840087E-04-2.64815525E-05-8.75377820E-17
 9  1-1.31065631E-10 1.63629704E-10-2.47997667E-11-2.35546847E-11 1.17737106E-12
 9  2-3.40273027E-14 2.95039390E-02 7.44061832E-01-2.19580999E-11-9.18810438E-03
 9  3-2.31715431E-01 1.55053898E-12-3.14345808E-03-7.92750834E-02 6.99970411E-13
 9  4-1.71242215E-14-1.75375736E-14 3.46617951E-14 6.71618178E-17-4.08135999E-05
 9  5-1.02928097E-03 2.83171481E-14 2.84982597E-14-5.68154078E-14 1.06084705E-16
 9  6-9.08299516E-05-2.29064675E-03-2.18263029E-13-2.18495443E-13 4.36758472E-13
 9  7 1.42342435E-16-4.72247416E-06-1.19096409E-04-5.65460405E-05-1.42603851E-03
 9  8 1.09077758E-12-7.67549697E-15-7.92455583E-15 1.56000528E-14 8.18556774E-17
 9  9-5.59113223E-06-1.41003156E-04 1.21455175E-05 3.06298638E-04-9.44583643E-16
 9 10 1.36980915E-04 8.53814438E-16 5.43164057E-06 4.13477503E-16-2.17265623E-05
 9 11-5.47923660E-04 8.72120866E-17 8.47376091E-11-2.89222692E-10 5.99275193E-11
 9 12 5.11218001E-11-5.03803463E-13-1.29833239E-13 2.95138268E-02 7.44311232E-01
 9 13-1.03424067E-10-9.22464757E-03-2.32637021E-01 1.17743759E-11-3.10268224E-03
 9 14-7.82467565E-02 4.62891199E-12-9.05038342E-15-8.95794868E-15 1.80083321E-14
 9 15 6.95278134E-17 5.73703281E-05 1.44682623E-03-5.17086581E-14-5.20471179E-14
 9 16 1.03755776E-13 2.64420154E-16 6.41898198E-05 1.61880746E-03 1.69316326E-13
 9 17 1.69439595E-13-3.38755921E-13-7.07191398E-17 4.54912257E-06 1.14724625E-04
 9 18-5.37655753E-05-1.35591769E-03 1.03594753E-12 3.73876386E-15 3.71582393E-15
 9 19-7.45458779E-15 2.46069224E-17 1.89959654E-05 4.79060533E-04 1.48036379E-05
 9 20 3.73333958E-04-2.15414824E-14 1.66960022E-04 1.44273723E-14 6.62038811E-06
 9 21 1.44735591E-14-2.64815525E-05-6.67840086E-04-3.39671974E-17
10  1-4.94515836E-12 1.19741797E-10-6.07848486E-11-4.74408123E-11-1.44100380E-13
10  2 3.22383064E-13-6.61439842E-01 3.28084209E-01-9.45013847E-11 9.46028202E-02
10  3-4.69244357E-02-2.44736753E-12 3.68072909E-02-1.82569753E-02 3.22642339E-13
10  4 9.95559560E-15 9.99448670E-15-1.99500823E-14-2.58131530E-17-1.73589519E-04
10  5 8.61030395E-05 7.61151138E-14 7.49025002E-14-1.51017614E-13 2.01445709E-16
10  6 4.07933019E-04-2.02340972E-04-1.35696963E-13-1.35611373E-13 2.71308336E-13
10  7-3.43361257E-16-2.67930802E-04 1.32897748E-04-1.10386927E-03 5.47535927E-04
10  8 5.90056787E-13 3.25220934E-14 3.24166099E-14-6.49387033E-14 5.41139371E-17
10  9-3.90106013E-04 1.93498509E-04-1.26673796E-05 6.28321247E-06-5.04812272E-14
10 10 2.80993804E-06 3.37414000E-14-5.66502439E-06 3.39862733E-14 2.26600975E-05
10 11-1.12397522E-05-3.25633953E-17 5.12763756E-11-1.03000168E-10 4.20612386E-11
10 12 3.30369916E-11-8.28655646E-14-2.62373444E-13 6.61730619E-01-3.28228440E-01
10 13-6.03300559E-12-9.56610699E-02 4.74493440E-02 7.11934500E-13-3.56578344E-02
10 14 1.76868276E-02 3.98735480E-13 1.26027400E-14 1.20042093E-14-2.46069493E-14
10 15 1.20537459E-16 1.70023410E-04-8.43341953E-05-3.42341576E-15-2.84166020E-15
10 16 6.26507596E-15-2.50799517E-16 2.97995509E-04-1.47810301E-04 1.63502982E-13
10 17 1.63125951E-13-3.26628933E-13 1.24200402E-16-2.74071632E-04 1.35943693E-04
10 18 1.12359396E-03-5.57319671E-04 7.40142647E-13-9.17295123E-15-9.02488567E-15
10 19 1.81978369E-14-4.31751497E-17-5.76805485E-04 2.86104282E-04 9.99465973E-05
10 20-4.95750308E-05 1.81230892E-14-2.21706278E-05-1.25201122E-14 4.46974772E-05
10 21-1.17945635E-14-1.78789909E-04 8.86825111E-05-7.69344199E-17
11  1-6.33096784E-11 2.04641574E-10-7.79922366E-11-6.29023579E-11 3.38781932E-13
11  2 3.53895078E-13-3.28084210E-01-6.61439839E-01-8.29461346E-11 4.69244360E-02
11  3 9.46028193E-02-6.63298133E-12 1.82569754E-02 3.68072905E-02-1.30461506E-12
11  4-9.51040868E-15-8.80630672E-15 1.83167154E-14 3.34991771E-17-8.61030385E-05
11  5-1.73589524E-04 1.45958195E-13 1.45467141E-13-2.91425336E-13-1.80517992E-17
11  6 2.02340975E-04 4.07933009E-04-1.49248635E-13-1.48846936E-13 2.98095571E-13
11  7-1.04569007E-16-1.32897748E-04-2.67930802E-04-5.47535925E-04-1.10386927E-03
11  8 9.95148074E-13 1.34043711E-14 1.31611838E-14-2.65655549E-14-2.80731825E-17
11  9-1.93498508E-04-3.90106013E-04-6.28321278E-06-1.26673783E-05-9.68110522E-14
11 10-5.66502381E-06 6.48004685E-14-2.80993818E-06 6.50851878E-14 1.12397527E-05
11 11 2.26600952E-05-7.65378953E-17 8.39572959E-12-1.89735536E-11 6.70762868E-12
11 12 5.36219622E-12-1.27263773E-12-1.06107349E-13 3.28228439E-01 6.61730622E-01
11 13 1.34045107E-10-4.74493438E-02-9.56610708E-02-1.84751464E-11-1.76868276E-02
11 14-3.56578348E-02-6.94530983E-12 4.72413213E-14 4.67135247E-14-9.39548460E-14
11 15 1.96643123E-16 8.43341939E-05 1.70023416E-04-2.70231602E-14-2.64420782E-14
11 16 5.34652384E-14-1.11224376E-16 1.47810299E-04 2.97995516E-04 2.08184665E-13
11 17 2.07904124E-13-4.16088789E-13 7.73313400E-17-1.35943693E-04-2.74071632E-04
11 18 5.57319672E-04 1.12359395E-03 1.15774219E-12 3.16941292E-14 3.17581403E-14
11 19-6.34522695E-14-2.86605418E-17-2.86104283E-04-5.76805483E-04 4.95750304E-05
11 20 9.99465986E-05-4.06275108E-15 4.46974777E-05 2.48930395E-15 2.21706276E-05
11 21 2.96144860E-15-8.86825104E-05-1.78789911E-04-3.01593126E-17
12  1-5.71271911E-02 2.26215134E-01-3.16853072E-01-2.34451337E-01-5.15461125E-03
12  2 1.60665878E-03 2.23001220E-11-2.48293887E-11 4.54259130E-01-2.96665212E-11
12  3 2.68405344E-11 9.07604301E-02-9.22844053E-12 8.38415451E-12 1.97185176E-02
12  4 1.43066066E-05 1.43066065E-05-2.86132131E-05 4.44234232E-17-1.65502887E-13
12  5 8.25118973E-14 5.83724175E-04 5.83724175E-04-1.16744835E-03 3.42599880E-17
12  6-3.04776652E-13 1.97768959E-13 2.17009520E-04 2.17009520E-04-4.34019040E-04
12  7 1.85603804E-17-4.61262917E-14 1.56894112E-14-3.51583839E-13 1.96861697E-13
12  8 2.89043728E-03-1.62253671E-04-1.62253671E-04 3.24507342E-04 2.37856471E-18
12  9-3.14412061E-14-1.35704468E-14 4.48650723E-14-2.43247099E-14-3.03857117E-04
12 10-1.09056478E-14 2.03833551E-04 2.00436066E-14 2.03833551E-04-8.02364175E-14
12 11 4.35406707E-14 8.47920039E-18-5.71528482E-02 2.26146647E-01-3.17360624E-01
12 12-2.33654113E-01-8.46660294E-03 2.20252537E-03 8.86384468E-11 1.33977365E-11
12 13-4.54799408E-01-4.07300068E-11 1.18975341E-11-8.85800825E-02-1.33309356E-11
12 14 3.53177206E-12-2.30292456E-02 1.69661598E-04 1.69661598E-04-3.39323196E-04
12 15-2.10814067E-17 2.32575388E-13-1.04933862E-13 2.39247600E-04 2.39247600E-04
12 16-4.78495200E-04-1.48956706E-17 2.48823153E-13-1.06323030E-13 2.98856266E-04
12 17 2.98856266E-04-5.97712532E-04 5.89426216E-18 1.12560092E-14-3.16167644E-14
12 18-1.70890738E-13 1.55756612E-13 1.10822054E-04-3.38284652E-05-3.38284652E-05
12 19 6.76569304E-05-1.54371101E-18 1.49130221E-14-3.67834518E-14 6.28433727E-14
12 20-2.53945995E-14 8.93648756E-05-1.13475755E-14-5.99477810E-05 2.81264489E-14
12 21-5.99477810E-05-1.12439681E-13 4.54180060E-14-1.67327105E-18
13  1 1.37397506E-11 2.78968832E-12-7.23591282E-12-5.17310208E-12-1.90934281E-13
13  2 1.29626986E-14-3.21229171E-02-3.89037938E-02-1.53644834E-11-3.59004625E-01
13  3-4.34787476E-01 5.81601035E-12-1.07738071E-01-1.30480670E-01 1.93423989E-12
13  4-2.73208684E-15-2.33387239E-15 5.06595923E-15 5.91800384E-17-1.60847570E-03
13  5-1.94801137E-03-6.68161699E-16-1.16952536E-15 1.83768706E-15 6.05898951E-16
13  6-3.13336414E-03-3.79479090E-03 2.11398663E-14 2.16188676E-14-4.27587339E-14
13  7 8.05872482E-17-4.83142538E-04-5.85129856E-04-3.94491738E-03-4.77765619E-03
13  8-2.79011534E-14 3.18292516E-15 2.62470304E-15-5.80762820E-15 1.68438477E-16
13  9-9.47456780E-06-1.14745691E-05 4.52216083E-04 5.47675087E-04-3.27131141E-15
13 10 2.44927745E-04 2.04932744E-15 2.02237181E-04 2.33959737E-15-8.08948723E-04
13 11-9.79710979E-04-2.76954985E-17-1.47971472E-12-1.30947529E-11-7.82899953E-12
13 12-5.24807296E-12-1.07451880E-13 6.53068684E-14-3.24347744E-02-3.92814819E-02
13 13 2.80568254E-12-3.57771896E-01-4.33294527E-01 1.29957004E-12-1.09619878E-01
13 14-1.32759711E-01 3.85523825E-13-1.18444470E-16-8.87825030E-16 1.00626950E-15
13 15 1.28946909E-16 2.28936527E-03 2.77263098E-03 1.14986980E-14 1.12464782E-14
13 16-2.27451762E-14 2.86240031E-16 2.23779767E-03 2.71017790E-03 6.69927388E-15
13 17 6.44495642E-15-1.31442303E-14 1.91496321E-17 3.53385165E-04 4.27981795E-04
13 18-2.50739502E-03-3.03668497E-03-2.29962505E-14-5.78943395E-17 1.55071743E-16
13 19-9.71774034E-17-2.37737722E-17 1.70596833E-04 2.06608387E-04 5.90012425E-04
13 20 7.14559073E-04 1.14537667E-14 3.19560532E-04-7.75426643E-15 2.63861578E-04
13 21-7.61257413E-15-1.05544631E-03-1.27824213E-03-8.29418962E-17
14  1 6.70902585E-12 8.45665814E-12 2.20002980E-11 1.56305210E-11 5.38251688E-13
14  2-1.32787533E-13-3.89037938E-02 3.21229170E-02 1.16401828E-13-4.34787476E-01
14  3 3.59004625E-01-1.93372068E-12-1.30480670E-01 1.07738071E-01-3.56960018E-13
14  4-4.44474134E-14-4.27337797E-14 8.71811931E-14-2.68372654E-16-1.94801137E-03
14  5 1.60847570E-03-8.76913214E-14-8.71500866E-14 1.74841408E-13-6.95260547E-17
14  6-3.79479090E-03 3.13336414E-03-3.37814264E-14-3.27864143E-14 6.65678407E-14
14  7 1.40470898E-16-5.85129856E-04 4.83142538E-04-4.77765619E-03 3.94491738E-03
14  8-2.26892749E-15 1.25224135E-14 1.24700571E-14-2.49924706E-14-1.18570890E-16
14  9-1.14745692E-05 9.47456777E-06 5.47675087E-04-4.52216083E-04 7.20883629E-14
14 10-2.02237181E-04-4.88716695E-14 2.44927745E-04-4.78450184E-14-9.79710979E-04
14 11 8.08948723E-04-1.92359308E-16-1.09535157E-12 1.95212456E-11 3.43237813E-11
14 12 2.40746874E-11 8.04331929E-13-2.71544830E-13-3.92814818E-02 3.24347744E-02
14 13 1.59754127E-12-4.33294527E-01 3.57771896E-01-2.86280825E-12-1.32759711E-01
14 14 1.09619878E-01-9.44721601E-13-5.05022117E-14-5.04760433E-14 1.00978255E-13
14 15-4.81403549E-16 2.77263098E-03-2.28936527E-03-7.61046917E-14-7.67568693E-14
14 16 1.52861561E-13-1.61760738E-16 2.71017790E-03-2.23779767E-03-2.26423369E-14
14 17-2.24842643E-14 4.51266012E-14 4.04856395E-17 4.27981795E-04-3.53385165E-04
14 18-3.03668497E-03 2.50739502E-03-2.36740934E-14-8.47100691E-17-1.13674592E-16
14 19 1.98384661E-16-2.98126276E-17 2.06608387E-04-1.70596833E-04 7.14559073E-04
14 20-5.90012425E-04-5.44413508E-14-2.63861578E-04 3.68267173E-14 3.19560532E-04
14 21 3.62140194E-14-1.27824213E-03 1.05544631E-03 7.89136525E-17
15  1 1.80239433E-02-6.33023615E-02 1.49637135E-01 2.13956417E-01-3.34163216E-01
15  2-2.98782776E-01 2.38223148E-12 1.08372225E-10 5.35948375E-04-1.13863288E-11
15  3-5.76998562E-10 6.41270516E-03-3.46615347E-12-1.75532739E-10 8.93827704E-03
15  4 2.29098350E-02 2.29504105E-02-4.58602455E-02 1.04358501E-06-1.72651136E-14
15  5-8.53591188E-13 1.49560233E-02 1.49832472E-02-2.99392705E-02 7.00191065E-07
15  6-2.77385315E-14-1.35823312E-12 9.42160210E-03 9.43675600E-03-1.88583581E-02
15  7 3.89753030E-07 8.14954500E-15 4.33366950E-13-3.96179309E-14-1.97721964E-12
15  8-2.98638135E-03 2.87411705E-03 2.87519021E-03-5.74930726E-03 2.76011906E-08
15  9 1.47115879E-14 7.61863287E-13 3.62481465E-15 1.85292427E-13 9.46047499E-04
15 10 8.32485201E-14-6.34788424E-04 1.74755068E-15-6.34467487E-04-6.61074985E-15
15 11-3.31844397E-13 8.25438833E-09 1.80233217E-02-6.32997461E-02 1.49632297E-01
15 12 2.13953036E-01-3.34163770E-01-2.98782774E-01-2.05264202E-12-1.08182276E-10
15 13-5.35576055E-04 1.09735380E-11 5.76887311E-10-6.44974573E-03 3.33735308E-12
15 14 1.75496753E-10-8.94964279E-03 2.29098411E-02 2.29504165E-02-4.58602576E-02
15 15 1.04358501E-06-1.57626295E-14-8.53470494E-13 1.49559722E-02 1.49831962E-02
15 16-2.99391684E-02 7.00191065E-07-2.47743985E-14-1.35773498E-12 9.42162760E-03
15 17 9.43678150E-03-1.88584091E-02 3.89753029E-07 8.23989731E-15 4.33224717E-13
15 18 3.81054675E-14 1.97804033E-12 2.98645045E-03 2.87413679E-03 2.87520995E-03
15 19-5.74934674E-03 2.76011903E-08 1.48169486E-14 7.61849729E-13-3.72385894E-15
15 20-1.85114664E-13-9.46090012E-04-8.35881971E-14 6.34816942E-04-1.69346198E-15
15 21 6.34496005E-04 6.68954302E-15 3.31945581E-13-8.25438751E-09