%nproc=8
%mem=10gb
#p casscf/def2tzvp  

mokit{crazywfn, readno='Cr2_20_uhf_SUHFNO.fch', ist=5 }


