 $CONTRL SCFTYP=GVB RUNTYP=ENERGY ICHARG=0 MULT=1 NOSYM=1 ICUT=11
  MAXIT=500 ISPHER=1 $END
 $SYSTEM MWORDS=156 $END
 $SCF NCO=16 NPAIR=8 DIRSCF=.TRUE. $END
 $GUESS GUESS=MOREAD NORB=66 $END
 $DATA
GAMESS inp file produced by MOKIT,nif=66,nbf=66
C1   1
Cr   24.         0.00000000         0.00000000         0.00000000
   S  8
   1   2.54477807E+05   2.42905340E-04   0.00000000E+00
   2   3.81317971E+04   1.88435217E-03   0.00000000E+00
   3   8.67529306E+03   9.80095576E-03   0.00000000E+00
   4   2.45500998E+03   3.98250093E-02   0.00000000E+00
   5   7.99162178E+02   1.29405439E-01   0.00000000E+00
   6   2.86900215E+02   3.06290017E-01   0.00000000E+00
   7   1.11254132E+02   4.34628353E-01   0.00000000E+00
   8   4.38641526E+01   2.24695624E-01   0.00000000E+00
   S  4
   1   2.79326692E+02  -2.43633598E-02   0.00000000E+00
   2   8.62747324E+01  -1.15114953E-01   0.00000000E+00
   3   1.35557561E+01   5.50922663E-01   0.00000000E+00
   4   5.69781128E+00   5.36113546E-01   0.00000000E+00
   S  2
   1   8.56365826E+00  -3.71230182E-01   0.00000000E+00
   2   1.39882968E+00   1.16811695E+00   0.00000000E+00
   S  1
   1   5.72881710E-01   1.00000000E+00   0.00000000E+00
   S  1
   1   9.00961700E-02   1.00000000E+00   0.00000000E+00
   S  1
   1   3.41258900E-02   1.00000000E+00   0.00000000E+00
   P  6
   1   1.30643989E+03   2.82927702E-03   0.00000000E+00
   2   3.09253114E+02   2.27766281E-02   0.00000000E+00
   3   9.89962740E+01   1.05645614E-01   0.00000000E+00
   4   3.67569164E+01   2.99499448E-01   0.00000000E+00
   5   1.45666571E+01   4.77062456E-01   0.00000000E+00
   6   5.87399374E+00   2.76542346E-01   0.00000000E+00
   P  3
   1   2.28909997E+01  -1.94121084E-02   0.00000000E+00
   2   3.08550018E+00   3.86188757E-01   0.00000000E+00
   3   1.21323291E+00   6.76239091E-01   0.00000000E+00
   P  1
   1   4.49316810E-01   1.00000000E+00   0.00000000E+00
   D  4
   1   4.37200745E+01   2.20932528E-02   0.00000000E+00
   2   1.23912427E+01   1.28014388E-01   0.00000000E+00
   3   4.26394420E+00   3.86529104E-01   0.00000000E+00
   4   1.55252218E+00   6.41033014E-01   0.00000000E+00
   D  1
   1   5.37619290E-01   1.00000000E+00   0.00000000E+00
   D  1
   1   1.64931730E-01   1.00000000E+00   0.00000000E+00
   P  1
   1   1.20675000E-01   1.00000000E+00   0.00000000E+00

Cr   24.         0.00000000         0.00000000         2.00000001
   S  8
   1   2.54477807E+05   2.42905340E-04   0.00000000E+00
   2   3.81317971E+04   1.88435217E-03   0.00000000E+00
   3   8.67529306E+03   9.80095576E-03   0.00000000E+00
   4   2.45500998E+03   3.98250093E-02   0.00000000E+00
   5   7.99162178E+02   1.29405439E-01   0.00000000E+00
   6   2.86900215E+02   3.06290017E-01   0.00000000E+00
   7   1.11254132E+02   4.34628353E-01   0.00000000E+00
   8   4.38641526E+01   2.24695624E-01   0.00000000E+00
   S  4
   1   2.79326692E+02  -2.43633598E-02   0.00000000E+00
   2   8.62747324E+01  -1.15114953E-01   0.00000000E+00
   3   1.35557561E+01   5.50922663E-01   0.00000000E+00
   4   5.69781128E+00   5.36113546E-01   0.00000000E+00
   S  2
   1   8.56365826E+00  -3.71230182E-01   0.00000000E+00
   2   1.39882968E+00   1.16811695E+00   0.00000000E+00
   S  1
   1   5.72881710E-01   1.00000000E+00   0.00000000E+00
   S  1
   1   9.00961700E-02   1.00000000E+00   0.00000000E+00
   S  1
   1   3.41258900E-02   1.00000000E+00   0.00000000E+00
   P  6
   1   1.30643989E+03   2.82927702E-03   0.00000000E+00
   2   3.09253114E+02   2.27766281E-02   0.00000000E+00
   3   9.89962740E+01   1.05645614E-01   0.00000000E+00
   4   3.67569164E+01   2.99499448E-01   0.00000000E+00
   5   1.45666571E+01   4.77062456E-01   0.00000000E+00
   6   5.87399374E+00   2.76542346E-01   0.00000000E+00
   P  3
   1   2.28909997E+01  -1.94121084E-02   0.00000000E+00
   2   3.08550018E+00   3.86188757E-01   0.00000000E+00
   3   1.21323291E+00   6.76239091E-01   0.00000000E+00
   P  1
   1   4.49316810E-01   1.00000000E+00   0.00000000E+00
   D  4
   1   4.37200745E+01   2.20932528E-02   0.00000000E+00
   2   1.23912427E+01   1.28014388E-01   0.00000000E+00
   3   4.26394420E+00   3.86529104E-01   0.00000000E+00
   4   1.55252218E+00   6.41033014E-01   0.00000000E+00
   D  1
   1   5.37619290E-01   1.00000000E+00   0.00000000E+00
   D  1
   1   1.64931730E-01   1.00000000E+00   0.00000000E+00
   P  1
   1   1.20675000E-01   1.00000000E+00   0.00000000E+00

 $END
 $VEC
 1  1 9.98327882E-01 5.24524781E-03-2.34052372E-03 1.58988113E-03-8.49617569E-04
 1  2 2.53032365E-04-7.13604532E-11 9.40656800E-12-1.79430073E-04 2.44760915E-11
 1  3-2.42003999E-12-5.69183815E-05 8.26830685E-12-8.51219085E-13 6.92846402E-05
 1  4 6.05904920E-06 6.05904920E-06-1.21180984E-05 3.51624619E-18 1.29897727E-13
 1  5-1.83546542E-14-2.39395013E-05-2.39395013E-05 4.78790026E-05 2.39496995E-18
 1  6 2.37327441E-13-3.13124946E-14 8.19235675E-05 8.19235675E-05-1.63847135E-04
 1  7 1.32297573E-18 2.52395440E-14-4.91408894E-15 1.72483747E-13-2.00663610E-14
 1  8-3.53590344E-04 5.59689768E-05 9.15909673E-06 2.19196871E-05 7.19337672E-05
 1  9 4.79273754E-04-1.19669445E-04-4.93032613E-11 7.53497446E-12-4.21290995E-05
 1 10 1.84015083E-11-4.25317326E-12-1.96131429E-05 6.11109528E-12-1.37515338E-12
 1 11-7.88493012E-06-8.05709170E-06-8.05709170E-06 1.61141834E-05 4.79365053E-20
 1 12-1.58381851E-13 3.06729433E-14 1.47512125E-05 1.47512126E-05-2.95024251E-05
 1 13 4.72923003E-20-1.49698195E-13 2.71586727E-14-7.86736535E-06-7.86736535E-06
 1 14 1.57347307E-05 5.85842010E-20-3.72225550E-14 2.57459855E-15 1.29880989E-13
 1 15-2.35740618E-14-2.64179215E-04
 2  1 6.70915435E-05-8.50777601E-06-2.21874826E-05-7.17761173E-05-4.79707116E-04
 2  2 1.19783141E-04 2.82959917E-12-3.14132693E-11-4.21477085E-05 1.72912171E-12
 2  3 6.46253472E-12-1.96180151E-05 4.84931968E-13 2.34205457E-12-7.89473165E-06
 2  4 8.04896430E-06 8.04896430E-06-1.60979286E-05-9.85932370E-17 1.05232752E-14
 2  5 3.05724484E-14-1.47336747E-05-1.47336747E-05 2.94673494E-05-6.55304908E-17
 2  6 1.49609954E-14 6.51486131E-14 7.89331550E-06 7.89331550E-06-1.57866310E-05
 2  7-3.72380550E-17 4.44092635E-15 4.78303448E-16 2.41076964E-14 2.30482771E-14
 2  8-2.64448195E-04-9.98327881E-01-5.24523777E-03 2.34056999E-03-1.58998165E-03
 2  9 8.50155246E-04-2.53231307E-04-1.85530260E-12-6.11986590E-12-1.79438328E-04
 2 10 1.47752379E-12 4.48784782E-12-5.69161839E-05 4.72294791E-13 1.43407269E-12
 2 11 6.92771246E-05-6.06190670E-06-6.06190670E-06 1.21238134E-05-1.78101573E-18
 2 12-1.18283355E-14-4.13454461E-14 2.39612455E-05 2.39612455E-05-4.79224910E-05
 2 13-1.10018838E-18-1.17976175E-14-3.48638397E-14-8.20001275E-05-8.20001275E-05
 2 14 1.64000255E-04-1.62958413E-18-7.10172086E-16-1.50157355E-14 7.26166561E-15
 2 15 4.57478142E-14-3.53839213E-04
 3  1-6.79441373E-02 1.97053975E-01 2.83233210E-01 1.97655237E-01 6.33050994E-03
 3  2-1.90081107E-03-1.06870539E-10-8.91296233E-11 4.11880231E-01 4.28240560E-11
 3  3 1.81228204E-11 1.77338747E-02 1.42573094E-11 6.60921336E-12 2.31492950E-03
 3  4-5.09228650E-04-5.09228650E-04 1.01845730E-03-1.65123390E-17 2.60955574E-13
 3  5 1.12386583E-13-9.45399760E-04-9.45399760E-04 1.89079952E-03 2.20964794E-18
 3  6 4.45713085E-13 2.25396126E-13-2.60370384E-04-2.60370383E-04 5.20740767E-04
 3  7 1.69271930E-17 6.91063633E-14 9.04400540E-15 3.66531697E-13 8.26850701E-14
 3  8 6.00746407E-04-6.79457597E-02 1.97054734E-01 2.83211771E-01 1.97684442E-01
 3  9 6.74533089E-03-2.02527351E-03-1.12192945E-10 2.63365037E-11-4.11883413E-01
 3 10 4.42733226E-11 2.72953972E-11-1.77256470E-02 1.46404077E-11 8.13184936E-12
 3 11-2.32771569E-03-5.83933240E-04-5.83933240E-04 1.16786648E-03-3.65208641E-17
 3 12-3.47636961E-13-2.12496591E-13-8.08719385E-04-8.08719385E-04 1.61743877E-03
 3 13 2.07328721E-17-3.29137641E-13-1.59380620E-13-3.75779024E-04-3.75779023E-04
 3 14 7.51558047E-04 9.96213702E-18-4.85741198E-14-4.47963256E-14 2.52430854E-13
 3 15 2.41292568E-13-8.29988735E-04
 4  1 9.09687129E-03 1.29877268E-02-4.08097739E-01-2.92543597E-01-1.19023065E-05
 4  2 3.27791137E-03 2.20950964E-11 4.64328666E-11-1.77373034E-01-1.24101402E-11
 4  3-8.01348044E-12-5.44865005E-02-4.04513358E-12-2.99298462E-12-1.44689411E-02
 4  4 8.61186220E-05 8.61186220E-05-1.72237244E-04-5.50426481E-17-1.34134333E-13
 4  5-2.22467226E-15 3.67783530E-04 3.67783529E-04-7.35567059E-04-8.53701168E-17
 4  6-1.84000642E-13-5.77489275E-14-1.19678423E-03-1.19678424E-03 2.39356847E-03
 4  7-6.34920558E-17-6.33151622E-14 3.30289584E-14-1.97443007E-13 4.03615257E-14
 4  8 6.38957089E-03-9.10152544E-03-1.29822063E-02 4.08041234E-01 2.92565704E-01
 4  9 2.76758738E-04-3.53055080E-03 1.28656943E-10-1.05580582E-10-1.77377926E-01
 4 10-3.19239859E-11 2.46067211E-12-5.44800825E-02-1.09912051E-11 1.73242992E-12
 4 11-1.44222369E-02-1.84653056E-04-1.84653057E-04 3.69306113E-04-8.00021901E-17
 4 12 2.07769271E-13 1.49420716E-14-3.23292483E-04-3.23292483E-04 6.46584966E-04
 4 13 4.93609673E-17 2.12930111E-13-2.40476394E-14 1.28439433E-03 1.28439433E-03
 4 14-2.56878866E-03-1.62450945E-17-1.86479027E-14 4.93571272E-14-7.26026224E-14
 4 15-1.26649412E-13 6.24932320E-03
 5  1-1.81831972E-02 5.06232573E-02 9.07197567E-02 6.50209262E-02-5.00753946E-03
 5  2-1.52447561E-03 1.75722897E-11 4.20638742E-11-7.25108122E-01-8.08930345E-12
 5  3 2.24572986E-11 2.25669402E-01-2.64348586E-12 6.24410002E-12 7.82416452E-02
 5  4-8.83061710E-05-8.83061710E-05 1.76612342E-04-1.71383307E-16 5.76540256E-15
 5  5 1.68356168E-13-7.62520635E-04-7.62520635E-04 1.52504127E-03-1.06854077E-17
 5  6-3.61278524E-14 2.22916338E-13 7.70834070E-04 7.70834070E-04-1.54166814E-03
 5  7 4.95556494E-17 3.05273645E-14 8.19273537E-14 1.06394028E-14 3.64421188E-13
 5  8-4.92489081E-03 1.81814804E-02-5.06525765E-02-9.08003654E-02-6.47655397E-02
 5  9 4.78996941E-03 1.71214017E-03-1.18874866E-10-8.13502632E-11-7.25147423E-01
 5 10 7.03959947E-12 2.92317424E-11 2.25848650E-01 3.25578695E-12 9.74589210E-12
 5 11 7.78297032E-02-3.88472479E-05-3.88472479E-05 7.76944958E-05 7.32436511E-17
 5 12-1.43074620E-14-2.09038489E-13 8.95420615E-04 8.95420615E-04-1.79084123E-03
 5 13-7.01092010E-17-4.67359456E-14-2.16675494E-13-7.49685760E-04-7.49685760E-04
 5 14 1.49937152E-03 2.69427768E-17 4.65174376E-14 9.64821781E-15-1.00886407E-13
 5 15 8.73358686E-14-4.59226754E-03
 6  1 2.12329607E-01-7.27518594E-01 1.45222724E-01 1.27425858E-01 5.97277646E-04
 6  2 1.00356060E-04-6.55852196E-11-4.36682260E-10 3.05332642E-01 2.51414559E-11
 6  3 1.30959406E-10-9.71303219E-02 8.40311042E-12 4.49263740E-11-3.31573053E-02
 6  4 4.00117809E-04 4.00117809E-04-8.00235618E-04-5.32103204E-17 1.51524716E-13
 6  5 6.62457133E-13 2.42129714E-04 2.42129715E-04-4.84259429E-04-4.55865601E-17
 6  6 2.58748390E-13 1.26463291E-12-2.36579952E-04-2.36579952E-04 4.73159904E-04
 6  7-5.41603300E-17 4.06099197E-14 9.64440039E-14 2.12117669E-13 8.02476621E-13
 6  8-7.70664116E-04 2.12418834E-01-7.27441292E-01 1.46657445E-01 1.25510319E-01
 6  9 2.29047510E-03-6.92489739E-04-7.90306860E-11-2.04931543E-10-3.05377882E-01
 6 10 2.46395028E-11 9.15406628E-11 9.72876738E-02 8.30145448E-12 3.00225892E-11
 6 11 3.30437274E-02 2.75420051E-04 2.75420050E-04-5.50840101E-04-5.55057468E-18
 6 12-1.94452602E-13-8.15760400E-13 2.65857380E-04 2.65857380E-04-5.31714760E-04
 6 13-1.71580303E-17-1.89459875E-13-7.47659776E-13-1.06352698E-04-1.06352697E-04
 6 14 2.12705395E-04 1.27191442E-17-2.70984238E-14-2.30654167E-13 1.30936620E-13
 6 15 7.45652079E-13 2.23449003E-04
 7  1 2.32183046E-01-7.95208005E-01 1.50730805E-01 1.35329267E-01-4.75833885E-03
 7  2-4.40957251E-04 5.59944461E-10-6.17733565E-10-5.02567532E-02-1.84866653E-10
 7  3 1.78764774E-10 4.75026275E-02-6.27590067E-11 6.16562002E-11 1.56476573E-02
 7  4 6.11191180E-05 6.11191180E-05-1.22238236E-04-2.90111187E-17-1.05281235E-12
 7  5 1.01533353E-12-3.91860357E-04-3.91860357E-04 7.83720714E-04 2.03366125E-17
 7  6-1.88345051E-12 1.85197730E-12 8.49867020E-04 8.49867020E-04-1.69973404E-03
 7  7 2.03435327E-17-2.29330263E-13 2.01184711E-13-1.36230667E-12 1.21250645E-12
 7  8-4.89419979E-03-2.32332116E-01 7.95123644E-01-1.53041153E-01-1.32511509E-01
 7  9 4.10060533E-03 5.52265166E-04 4.44330597E-10-4.45973353E-10-5.02759696E-02
 7 10-1.67587117E-10 1.64819251E-10 4.75815432E-02-5.55944467E-11 5.47468077E-11
 7 11 1.54363222E-02-2.31271694E-05-2.31271693E-05 4.62543387E-05 4.50461542E-17
 7 12 1.36742985E-12-1.34394106E-12 4.06099797E-04 4.06099797E-04-8.12199594E-04
 7 13-3.17906887E-17 1.28632140E-12-1.25411433E-12-7.94696730E-04-7.94696730E-04
 7 14 1.58939346E-03 1.07568081E-17 2.57374804E-13-2.65206911E-13-1.06563296E-12
 7 15 1.07050421E-12-4.68952228E-03
 8  1 6.93616244E-11-5.04877322E-10-1.60401277E-11 5.49368318E-12-4.24974070E-12
 8  2 4.56557023E-13-7.41139471E-01 1.48968343E-02-6.76695667E-11 2.58980090E-01
 8  3-5.20547566E-03 2.90272062E-11 8.74056098E-02-1.75684461E-03 9.59758482E-12
 8  4 7.69031892E-14 7.73279428E-14-1.54231132E-13-1.13289001E-15 1.55508114E-03
 8  5-3.12569855E-05-5.15406126E-14-5.17734134E-14 1.03314026E-13-1.16370484E-15
 8  6 2.70084173E-03-5.42866667E-05 4.84041809E-13 4.87034681E-13-9.71076490E-13
 8  7 2.69453849E-15 3.87680146E-04-7.79233439E-06 2.07397711E-03-4.16867459E-05
 8  8-2.26323458E-12-1.75279990E-10 5.98884983E-10-1.31179212E-10-1.11172620E-10
 8  9 9.34472597E-13 4.00459289E-13-7.41353174E-01 1.49011284E-02 5.49991210E-11
 8 10 2.59753975E-01-5.22103054E-03 2.87837917E-12 8.66528747E-02-1.74171465E-03
 8 11 6.41165460E-13 2.63118454E-14 2.55293817E-14-5.18412271E-14-1.39838896E-15
 8 12-2.05371483E-03 4.12794760E-05 2.90746928E-13 2.91981619E-13-5.82728547E-13
 8 13-9.96634484E-16-1.95718293E-03 3.93391935E-05-2.96012631E-13-2.97053560E-13
 8 14 5.93066191E-13 4.87810800E-16-3.10413208E-04 6.23927690E-06 1.48117037E-03
 8 15-2.97713867E-05-2.22691154E-12
 9  1 2.43823227E-10-8.70743601E-10 1.83589906E-10 1.60867571E-10-2.67020775E-12
 9  2-3.60918445E-13 1.48968336E-02 7.41139471E-01 6.87141936E-11-5.20547557E-03
 9  3-2.58980090E-01-8.01549715E-12-1.75684458E-03-8.74056098E-02-2.59953702E-12
 9  4 1.91227579E-13 1.91407131E-13-3.82634710E-13-8.57940733E-17-3.12569857E-05
 9  5-1.55508114E-03-2.53005457E-13-2.52934545E-13 5.05940002E-13 2.81756084E-16
 9  6-5.42866663E-05-2.70084173E-03 4.59153198E-13 4.59107679E-13-9.18260877E-13
 9  7-3.79507142E-16-7.79233485E-06-3.87680146E-04-4.16867467E-05-2.07397711E-03
 9  8-3.76454104E-12-9.64335851E-11 2.39922843E-10-6.32956846E-12-1.17288847E-11
 9  9 4.65504719E-12-1.71214186E-13 1.49011291E-02 7.41353174E-01-1.97527565E-10
 9 10-5.22103067E-03-2.59753975E-01 7.98884287E-11-1.74171469E-03-8.66528747E-02
 9 11 2.67902512E-11 5.63853489E-14 5.91833061E-14-1.15568655E-13 6.42074851E-16
 9 12 4.12794765E-05 2.05371483E-03 3.58362987E-13 3.55470448E-13-7.13833435E-13
 9 13-5.16573076E-16 3.93391942E-05 1.95718293E-03-6.07141051E-13-6.05928119E-13
 9 14 1.21306917E-12 1.99641381E-16 6.23927636E-06 3.10413208E-04-2.97713861E-05
 9 15-1.48117037E-03-3.15539487E-12
10  1 2.43631825E-11-1.36512512E-10 7.91996335E-11 6.14199066E-11-7.22051192E-13
10  2-5.08986984E-13-6.66193792E-01 3.16948258E-01 3.18750488E-11 9.25704260E-02
10  3-4.40412919E-02 2.21508557E-11 3.60681230E-02-1.71597648E-02 6.48760573E-12
10  4-6.99749019E-15-6.55492161E-15 1.35524118E-14 3.84067757E-16-6.04932116E-05
10  5 2.87802416E-05-1.37127705E-13-1.36499093E-13 2.73626798E-13 2.37084221E-16
10  6 5.22390357E-04-2.48532357E-04 2.51443856E-13 2.50619418E-13-5.02063274E-13
10  7-9.69819642E-16-3.93299593E-04 1.87116155E-04-6.29298027E-04 2.99394735E-04
10  8-1.48108898E-12-2.47749162E-11 5.39769955E-11-5.48241742E-11-4.09266898E-11
10  9 9.37677217E-13 4.65498139E-13 6.66489872E-01-3.17089121E-01-7.39359437E-11
10 10-9.36450302E-02 4.45525456E-02 2.78666593E-11-3.49219141E-02 1.66144447E-02
10 11 9.29469505E-12 1.19669200E-14 1.15420424E-14-2.35089624E-14 4.02332243E-16
10 12 2.84818342E-04-1.35505132E-04 1.20732395E-13 1.21062663E-13-2.41795058E-13
10 13 5.24937332E-16 4.77042993E-04-2.26957903E-04-2.91864443E-13-2.91669865E-13
10 14 5.83534308E-13-2.54928952E-16-5.16755367E-04 2.45851456E-04 7.00465095E-04
10 15-3.33253167E-04-1.50706670E-12
11  1-4.56640828E-11 1.42755059E-10-5.53378874E-11-4.42987336E-11-5.65593434E-13
11  2 1.43278304E-13-3.16948259E-01-6.66193793E-01-1.79883377E-10 4.40412922E-02
11  3 9.25704260E-02 2.46840735E-11 1.71597649E-02 3.60681230E-02 9.63833084E-12
11  4-1.02966902E-14-9.96778842E-15 2.02644786E-14 2.12641047E-16-2.87802398E-05
11  5-6.04932116E-05-2.41597459E-15-2.28207347E-15 4.69804806E-15 3.44571883E-16
11  6 2.48532360E-04 5.22390357E-04-9.76971718E-15-1.00032718E-14 1.97729890E-14
11  7-1.05869617E-15-1.87116155E-04-3.93299593E-04-2.99394733E-04-6.29298027E-04
11  8 1.55051134E-13 1.02239065E-11 1.38826234E-11-3.17059770E-12-2.74801062E-12
11  9-3.01000455E-13 1.11792775E-13 3.17089120E-01 6.66489871E-01-4.66592535E-12
11 10-4.45525453E-02-9.36450302E-02 1.13036999E-11-1.66144446E-02-3.49219142E-02
11 11 3.75816361E-12-1.20666106E-15-2.06830480E-15 3.27496586E-15 1.03251525E-16
11 12 1.35505130E-04 2.84818342E-04 8.00209857E-14 8.12473253E-14-1.61268311E-13
11 13 5.17632975E-16 2.26957901E-04 4.77042993E-04 8.74900556E-14 8.69553824E-14
11 14-1.74445438E-13-2.37741724E-16-2.45851456E-04-5.16755367E-04 3.33253169E-04
11 15 7.00465095E-04 2.62655271E-13
12  1 5.15671541E-02-2.06595260E-01 3.08469736E-01 2.27693673E-01 5.45338024E-03
12  2-1.44045288E-03-5.02232439E-11 6.03197196E-12-4.62165015E-01 4.46088357E-11
12  3 2.96490632E-12-1.00245207E-01 1.40664986E-11 8.38984481E-13-2.29213422E-02
12  4 1.22705475E-04 1.22705475E-04-2.45410950E-04 2.34351224E-17 2.44447336E-13
12  5 6.22580747E-14-4.73224156E-04-4.73224156E-04 9.46448312E-04 2.75287046E-17
12  6 4.14268587E-13 7.20204645E-14-1.73977547E-04-1.73977547E-04 3.47955094E-04
12  7-7.41462119E-18 6.48866825E-14 3.73057132E-14 4.21224500E-13 1.00399203E-13
12  8-2.48189181E-03 5.15828541E-02-2.06540760E-01 3.08806870E-01 2.27164975E-01
12  9 7.45835458E-03-2.01472136E-03-3.05580602E-11-6.34799293E-11 4.62690285E-01
12 10 3.55909977E-11 1.81431514E-11 9.81345055E-02 1.12309807E-11 6.15718530E-12
12 11 2.60774868E-02-2.42113856E-05-2.42113856E-05 4.84227712E-05-2.10725483E-17
12 12-3.01581828E-13-1.10371421E-13-1.42310989E-04-1.42310989E-04 2.84621978E-04
12 13-2.84143451E-18-2.76195007E-13-1.11366946E-13-2.01344004E-04-2.01344003E-04
12 14 4.02688007E-04 1.95897637E-17-5.76041909E-14 1.98609817E-14 2.58268463E-13
12 15 3.21928577E-14 3.36009605E-04
13  1-5.24260701E-12 1.56497264E-11-5.39206977E-12-4.31126538E-12-4.46169847E-13
13  2-3.51365137E-14 8.21440502E-02-2.77360987E-02-7.64030939E-12 5.22729489E-01
13  3-1.76500632E-01 1.56615456E-11 1.56555227E-01-5.28611781E-02 4.79553201E-12
13  4-1.21946301E-14-1.15553408E-14 2.37499709E-14-2.28146600E-15 3.13535528E-03
13  5-1.05865883E-03-1.40852342E-14-1.41721590E-14 2.82573932E-14-1.82841909E-15
13  6 4.95388449E-03-1.67268877E-03 4.77802818E-14 5.27736972E-14-1.00553979E-13
13  7 5.27673010E-15 1.02704884E-03-3.46785046E-04 6.05664423E-03-2.04503775E-03
13  8-1.54605956E-13 3.98219846E-12 6.86946953E-13-2.16642137E-11-1.55816523E-11
13  9-1.40002117E-13 2.05263367E-13 8.26286973E-02-2.78997407E-02-4.49673705E-11
13 10 5.20819837E-01-1.75855835E-01 7.37628025E-12 1.59457047E-01-5.38409833E-02
13 11 2.74379278E-12 3.87883805E-15 5.08261962E-15-8.96145767E-15-2.08098759E-15
13 12-4.17413824E-03 1.40940592E-03 5.00775538E-14 4.92282547E-14-9.93058085E-14
13 13-2.48859946E-15-3.70260898E-03 1.25019315E-03-3.65851744E-14-3.69575983E-14
13 14 7.35427727E-14 1.16170684E-15-5.34766223E-04 1.80564859E-04 3.57834941E-03
13 15-1.20823667E-03-2.60739636E-13
14  1 7.66314856E-12-2.24085969E-11-1.73076690E-11-1.15842653E-11-2.79494633E-13
14  2 1.30474684E-13 2.77360988E-02 8.21440502E-02 7.55938271E-12 1.76500632E-01
14  3 5.22729489E-01 4.59877671E-12 5.28611781E-02 1.56555227E-01 1.25871850E-12
14  4-1.02114319E-14-1.05193028E-14 2.07307347E-14-6.12080615E-16 1.05865883E-03
14  5 3.13535528E-03 1.01190075E-14 9.16838946E-15-1.92873970E-14-1.00331872E-15
14  6 1.67268877E-03 4.95388449E-03-1.35952095E-16 2.26199101E-15-2.12603892E-15
14  7 1.98333553E-15 3.46785046E-04 1.02704884E-03 2.04503775E-03 6.05664422E-03
14  8 1.46686371E-13-5.39497685E-12 1.58243624E-11-3.55510830E-12-2.98048528E-12
14  9-1.54645769E-13-2.34089873E-14 2.78997407E-02 8.26286973E-02 1.35568628E-11
14 10 1.75855835E-01 5.20819837E-01-3.09464780E-12 5.38409833E-02 1.59457047E-01
14 11-1.08198297E-12-1.04857229E-15-7.12125179E-15 8.16982408E-15-2.26263447E-15
14 12-1.40940592E-03-4.17413824E-03-8.25990617E-15-1.43808869E-15 9.69799486E-15
14 13 6.19313757E-16-1.25019315E-03-3.70260898E-03 3.16520714E-14 2.81357151E-14
14 14-5.97877865E-14-1.69563096E-16-1.80564859E-04-5.34766223E-04 1.20823667E-03
14 15 3.57834941E-03 9.14507060E-14
15  1-3.74935483E-12 2.00656972E-12 2.19665080E-12 1.64529362E-12-1.29689912E-13
15  2-2.94933113E-14-1.07910705E-01-4.66298469E-02 8.72349921E-12 5.57153759E-01
15  3 2.40754562E-01 1.69098626E-11 1.67452293E-01 7.23586673E-02 5.04318099E-12
15  4-4.02365714E-14-3.74129625E-14 7.76495339E-14 1.77088831E-15 8.10096797E-04
15  5 3.50055073E-04-5.07421859E-14-4.80017052E-14 9.87438911E-14 2.78550537E-15
15  6 2.08856971E-03 9.02502546E-04 2.16927309E-14 1.78242718E-14-3.95170027E-14
15  7-7.39911189E-15-2.24010264E-04-9.67982217E-05 3.54608505E-03 1.53231696E-03
15  8-3.05379043E-15-2.17763677E-12 7.87440404E-12 1.52148550E-13-1.26088864E-13
15  9 2.15253166E-13 4.54414944E-15 1.07445000E-01 4.64286085E-02 3.49718761E-12
15 10-5.55209957E-01-2.39914616E-01 1.03500603E-11-1.70890668E-01-7.38444413E-02
15 11 3.17094957E-12-1.12772672E-14-1.48183010E-14 2.60955682E-14 1.95703596E-15
15 12 2.43250790E-03 1.05112344E-03 1.29434406E-15 5.47782110E-15-6.77216516E-15
15 13 3.60369291E-15 1.52398023E-03 6.58534897E-04-2.10746878E-14-2.17974753E-14
15 14 4.28721631E-14-1.69557677E-15-1.16576798E-03-5.03745966E-04-1.49985638E-03
15 15-6.48110616E-04-7.80722801E-14
16  1-9.44740524E-13 1.85283643E-13 8.87656697E-12 6.50277704E-12 5.81077839E-14
16  2-8.04918047E-14 4.66298469E-02-1.07910705E-01 8.17347914E-12-2.40754562E-01
16  3 5.57153759E-01 1.22234802E-11-7.23586673E-02 1.67452293E-01 3.68051619E-12
16  4-4.07514941E-14-4.16421417E-14 8.23936358E-14-1.57027005E-16-3.50055073E-04
16  5 8.10096797E-04-6.19869388E-14-6.34604952E-14 1.25447434E-13-4.81165899E-16
16  6-9.02502545E-04 2.08856971E-03 1.72177608E-14 1.83707684E-14-3.55885292E-14
16  7 1.52318239E-15 9.67982217E-05-2.24010264E-04-1.53231696E-03 3.54608505E-03
16  8-2.20186362E-14-4.79517637E-12 1.04660307E-11 5.12674201E-12 3.38700935E-12
16  9 3.07744962E-13-3.83844324E-14-4.64286086E-02 1.07445000E-01 3.71741214E-12
16 10 2.39914616E-01-5.55209957E-01 6.09772705E-12 7.38444413E-02-1.70890668E-01
16 11 1.82588013E-12-2.32984011E-14-2.74842213E-14 5.07826224E-14-1.80771399E-15
16 12-1.05112344E-03 2.43250790E-03-2.24370389E-14-1.67076644E-14 3.91447033E-14
16 13 4.38865461E-16-6.58534897E-04 1.52398023E-03-2.00329117E-14-2.28843096E-14
16 14 4.29172213E-14-1.50088428E-16 5.03745966E-04-1.16576798E-03 6.48110617E-04
16 15-1.49985638E-03-8.10193391E-14
17  1 1.39359850E-02-4.73962724E-02 1.33907741E-01 1.72086939E-01-2.55709523E-01
17  2-2.13609243E-01 4.31632425E-07 5.99282236E-07 1.14531391E-03-1.22286909E-06
17  3-1.69784049E-06 1.41864290E-02-1.49637584E-07-2.07757888E-07-2.17156123E-03
17  4 1.45478211E-01 1.42506837E-01-2.87985048E-01-1.36283893E-04 8.62536235E-06
17  5 1.19755179E-05 1.01225636E-01 9.92432593E-02-2.00468895E-01-9.09229128E-05
17  6 6.09779065E-06 8.46621837E-06 5.03324255E-02 4.91799991E-02-9.95124246E-02
17  7-5.28567447E-05 3.38626351E-06 4.70151371E-06 7.10801297E-07 9.86881858E-07
17  8 1.50071532E-02 1.39359851E-02-4.73962726E-02 1.33907741E-01 1.72086939E-01
17  9-2.55709524E-01-2.13609243E-01 4.31632445E-07 5.99281944E-07-1.14531391E-03
17 10-1.22286929E-06-1.69784107E-06-1.41864271E-02-1.49637626E-07-2.07758073E-07
17 11 2.17156180E-03 1.45478211E-01 1.42506837E-01-2.87985048E-01-1.36283893E-04
17 12-8.62536235E-06-1.19755179E-05 1.01225636E-01 9.92432593E-02-2.00468895E-01
17 13-9.09229128E-05-6.09779065E-06-8.46621837E-06 5.03324256E-02 4.91799992E-02
17 14-9.95124248E-02-5.28567447E-05-3.38626351E-06-4.70151371E-06 7.10801286E-07
17 15 9.86881855E-07-1.50071527E-02
18  1 1.69870784E-02-3.27653139E-02 1.82808814E-01 2.51540083E-02-6.86332297E-01
18  2-4.21859693E-01-1.61670104E-07-2.24464068E-07 3.17963565E-02 3.93693926E-07
18  3 5.46607913E-07-8.32585978E-02 3.96353576E-07 5.50299844E-07-5.43780183E-02
18  4 1.72286259E-01 1.69154118E-01-3.41440377E-01-1.43657555E-04 1.01205669E-05
18  5 1.40514711E-05 1.14302996E-01 1.12229932E-01-2.26532928E-01-9.50823089E-05
18  6 6.67159724E-06 9.26289577E-06 4.79450473E-02 4.67945674E-02-9.47396147E-02
18  7-5.27674705E-05 3.97705320E-06 5.52177062E-06 4.88141226E-07 6.77739121E-07
18  8-5.25451234E-02-1.69870784E-02 3.27653139E-02-1.82808814E-01-2.51540080E-02
18  9 6.86332296E-01 4.21859693E-01 1.61670074E-07 2.24463944E-07 3.17963572E-02
18 10-3.93693799E-07-5.46607415E-07-8.32586006E-02-3.96353791E-07-5.50300647E-07
18 11-5.43780153E-02-1.72286259E-01-1.69154119E-01 3.41440378E-01 1.43657555E-04
18 12 1.01205670E-05 1.40514714E-05-1.14302995E-01-1.12229932E-01 2.26532927E-01
18 13 9.50823089E-05 6.67159721E-06 9.26289566E-06-4.79450475E-02-4.67945676E-02
18 14 9.47396151E-02 5.27674705E-05 3.97705315E-06 5.52177045E-06-4.88141106E-07
18 15-6.77738718E-07-5.25451238E-02
19  1-3.91801936E-02 1.43098932E-01-9.84208323E-02-8.33555116E-02 1.12821927E-03
19  2 1.07775727E-02 3.72405092E-12 2.08020523E-12 2.04681498E-01-7.42164043E-12
19  3-3.67414894E-12-3.47913589E-03-2.53911545E-12-2.46058523E-12-6.93147827E-03
19  4-1.04916545E-02-1.04916531E-02 2.09833076E-02 6.13113747E-11-9.72772896E-12
19  5-5.08337440E-11-6.37990764E-03-6.37990676E-03 1.27598144E-02 4.09045165E-11
19  6-6.89450462E-12-3.59559997E-11-4.92106295E-03-4.92106244E-03 9.84212539E-03
19  7 2.37791211E-11-3.79991996E-12-1.99337332E-11-8.46351166E-13-4.24403505E-12
19  8-4.09834777E-03-2.53002198E-02 8.43994077E-02 1.22602515E-02-5.82960261E-03
19  9 1.14560536E-02 1.04030166E-02-1.89758812E-12-2.90157158E-13-1.91676276E-01
19 10 5.45574809E-12 1.31979242E-11 8.18164249E-01 1.40977881E-12 2.66325271E-12
19 11 2.56734304E-01-9.88999586E-03-9.88999454E-03 1.97799904E-02 6.13117910E-11
19 12 9.69112339E-12 5.07839055E-11-4.88386835E-03-4.88386747E-03 9.76773582E-03
19 13 4.09040504E-11 6.85118576E-12 3.59020174E-11-5.41611141E-03-5.41611089E-03
19 14 1.08322223E-02 2.37793604E-11 3.81781683E-12 1.99541926E-11-7.91901686E-13
19 15-4.16646750E-12 3.91106407E-03
20  1 4.40977657E-02-9.98662321E-03 6.16868919E-01-5.62378840E-01 1.46668980E-01
20  2 5.05218847E-01 1.29705448E-12 2.48315072E-12-1.90866806E-01-5.14174672E-12
20  3-8.74213662E-12 6.93242229E-01 8.22598496E-12 9.18746652E-12-7.33202450E-01
20  4-2.18074760E-02-2.18074747E-02 4.36149507E-02 6.46224265E-11-6.71477653E-12
20  5-5.37075596E-11 9.92829800E-02 9.92829810E-02-1.98565961E-01 4.28020451E-11
20  6-9.96807121E-12-4.23381065E-11-2.28825181E-01-2.28825180E-01 4.57650361E-01
20  7 2.37382693E-11-6.97766571E-12-2.65814415E-11-7.12126014E-12-1.08678284E-11
20  8 2.85159877E-01-5.29241887E-02-1.08156312E-02-7.87439194E-01 7.83660444E-01
20  9-4.02030582E-01-2.97028979E-01 4.32521978E-13 5.11239426E-13 1.21264053E-01
20 10-2.26683082E-12-3.68587723E-12-4.37899409E-01 5.68512261E-12 1.24286132E-11
20 11 5.40914177E-01-1.12602119E-01-1.12602120E-01 2.25204239E-01-6.45980338E-11
20 12-1.41083568E-11-6.35461881E-11-1.79884551E-02-1.79884561E-02 3.59769112E-02
20 13-4.28182125E-11-7.43883545E-12-3.88542809E-11 1.64415392E-01 1.64415392E-01
20 14-3.28830784E-01-2.37203969E-11-2.76403253E-12-2.08707196E-11-1.94947054E-12
20 15-1.61202028E-12 6.98198390E-02
21  1 1.09730387E-02-4.07248512E-02 7.01981054E-02 1.27624459E-01-2.20451608E-01
21  2-2.10253464E-01 5.24277611E-07 1.88907956E-06-1.62132069E-03-1.48534435E-06
21  3-5.35200052E-06-3.77654029E-03-1.81755666E-07-6.54903010E-07 1.74530245E-02
21  4-1.55861647E-01-1.51911029E-01 3.07772676E-01 1.81993961E-04 1.04766979E-05
21  5 3.77496937E-05-1.10121334E-01-1.07485647E-01 2.17606981E-01 1.21418759E-04
21  6 7.40661176E-06 2.66875431E-05-5.06020934E-02-4.90698742E-02 9.96719676E-02
21  7 7.05850718E-05 4.11308631E-06 1.48202945E-05 8.63366658E-07 3.11088740E-06
21  8-2.85498396E-02 1.09730388E-02-4.07248514E-02 7.01981057E-02 1.27624459E-01
21  9-2.20451607E-01-2.10253464E-01 5.24277599E-07 1.88907968E-06 1.62132074E-03
21 10-1.48534425E-06-5.35200031E-06 3.77654276E-03-1.81755682E-07-6.54902917E-07
21 11-1.74530237E-02-1.55861647E-01-1.51911029E-01 3.07772676E-01 1.81993961E-04
21 12-1.04766979E-05-3.77496937E-05-1.10121334E-01-1.07485647E-01 2.17606981E-01
21 13 1.21418759E-04-7.40661178E-06-2.66875431E-05-5.06020935E-02-4.90698743E-02
21 14 9.96719678E-02 7.05850718E-05-4.11308630E-06-1.48202945E-05 8.63366681E-07
21 15 3.11088739E-06 2.85498390E-02
22  1 1.20299164E-02-4.84378007E-02 7.96764953E-02 1.87008674E-01-5.03074299E-01
22  2-4.32314022E-01-1.96370713E-07-7.07563994E-07 5.60015239E-03 4.78195690E-07
22  3 1.72303724E-06-1.71017739E-02 4.81426597E-07 1.73467890E-06 2.49166644E-04
22  4-1.73206604E-01-1.69042238E-01 3.42248842E-01 1.91840774E-04 1.22928312E-05
22  5 4.42935950E-05-1.15347377E-01-1.12591117E-01 2.27938494E-01 1.26973230E-04
22  6 8.10357927E-06 2.91988602E-05-4.79995415E-02-4.64699101E-02 9.44694516E-02
22  7 7.04658547E-05 4.83068218E-06 1.74059399E-05 5.92914934E-07 2.13639433E-06
22  8-1.93048424E-02-1.20299165E-02 4.84378006E-02-7.96764958E-02-1.87008674E-01
22  9 5.03074298E-01 4.32314022E-01 1.96370720E-07 7.07564043E-07 5.60015334E-03
22 10-4.78195723E-07-1.72303744E-06-1.71017774E-02-4.81426536E-07-1.73467856E-06
22 11 2.49170485E-04 1.73206604E-01 1.69042237E-01-3.42248841E-01-1.91840774E-04
22 12 1.22928312E-05 4.42935948E-05 1.15347377E-01 1.12591117E-01-2.27938494E-01