 $CONTRL SCFTYP=GVB RUNTYP=ENERGY ICHARG=0 MULT=1 NOSYM=1 ICUT=11
  MAXIT=500 ISPHER=1 $END
 $SYSTEM MWORDS=156 $END
 $SCF NCO=18 NPAIR=6 DIRSCF=.TRUE. $END
 $GUESS GUESS=MOREAD NORB=90 $END
 $DATA
GAMESS inp file produced by MOKIT,nif=90,nbf=90
C1   1
Cr   24.         0.00000000         0.00000000         0.00000000
   S  8
   1   2.54477807E+05   2.42904776E-04   0.00000000E+00
   2   3.81317971E+04   1.88435236E-03   0.00000000E+00
   3   8.67529306E+03   9.80095844E-03   0.00000000E+00
   4   2.45500998E+03   3.98250087E-02   0.00000000E+00
   5   7.99162178E+02   1.29405437E-01   0.00000000E+00
   6   2.86900215E+02   3.06290018E-01   0.00000000E+00
   7   1.11254132E+02   4.34628350E-01   0.00000000E+00
   8   4.38641526E+01   2.24695629E-01   0.00000000E+00
   S  4
   1   2.79326692E+02  -2.43633579E-02   0.00000000E+00
   2   8.62747324E+01  -1.15114954E-01   0.00000000E+00
   3   1.35557561E+01   5.50922663E-01   0.00000000E+00
   4   5.69781128E+00   5.36113547E-01   0.00000000E+00
   S  2
   1   8.56365826E+00  -3.71230177E-01   0.00000000E+00
   2   1.39882968E+00   1.16811695E+00   0.00000000E+00
   S  1
   1   5.72881711E-01   1.00000000E+00   0.00000000E+00
   S  1
   1   9.00961713E-02   1.00000000E+00   0.00000000E+00
   S  1
   1   3.41258851E-02   1.00000000E+00   0.00000000E+00
   P  6
   1   1.30643989E+03   2.82928007E-03   0.00000000E+00
   2   3.09253114E+02   2.27766292E-02   0.00000000E+00
   3   9.89962740E+01   1.05645619E-01   0.00000000E+00
   4   3.67569165E+01   2.99499449E-01   0.00000000E+00
   5   1.45666571E+01   4.77062454E-01   0.00000000E+00
   6   5.87399374E+00   2.76542344E-01   0.00000000E+00
   P  3
   1   2.28909997E+01  -1.94121061E-02   0.00000000E+00
   2   3.08550018E+00   3.86188758E-01   0.00000000E+00
   3   1.21323291E+00   6.76239089E-01   0.00000000E+00
   P  1
   1   4.49316807E-01   1.00000000E+00   0.00000000E+00
   D  4
   1   4.37200745E+01   2.20932593E-02   0.00000000E+00
   2   1.23912427E+01   1.28014388E-01   0.00000000E+00
   3   4.26394420E+00   3.86529103E-01   0.00000000E+00
   4   1.55252218E+00   6.41033014E-01   0.00000000E+00
   D  1
   1   5.37619295E-01   1.00000000E+00   0.00000000E+00
   D  1
   1   1.64931731E-01   1.00000000E+00   0.00000000E+00
   P  1
   1   1.20675000E-01   1.00000000E+00   0.00000000E+00
   D  1
   1   5.10000000E-02   1.00000000E+00   0.00000000E+00
   F  1
   1   1.14700000E+00   1.00000000E+00   0.00000000E+00

Cr   24.         0.00000000         0.00000000         4.00000002
   S  8
   1   2.54477807E+05   2.42904776E-04   0.00000000E+00
   2   3.81317971E+04   1.88435236E-03   0.00000000E+00
   3   8.67529306E+03   9.80095844E-03   0.00000000E+00
   4   2.45500998E+03   3.98250087E-02   0.00000000E+00
   5   7.99162178E+02   1.29405437E-01   0.00000000E+00
   6   2.86900215E+02   3.06290018E-01   0.00000000E+00
   7   1.11254132E+02   4.34628350E-01   0.00000000E+00
   8   4.38641526E+01   2.24695629E-01   0.00000000E+00
   S  4
   1   2.79326692E+02  -2.43633579E-02   0.00000000E+00
   2   8.62747324E+01  -1.15114954E-01   0.00000000E+00
   3   1.35557561E+01   5.50922663E-01   0.00000000E+00
   4   5.69781128E+00   5.36113547E-01   0.00000000E+00
   S  2
   1   8.56365826E+00  -3.71230177E-01   0.00000000E+00
   2   1.39882968E+00   1.16811695E+00   0.00000000E+00
   S  1
   1   5.72881711E-01   1.00000000E+00   0.00000000E+00
   S  1
   1   9.00961713E-02   1.00000000E+00   0.00000000E+00
   S  1
   1   3.41258851E-02   1.00000000E+00   0.00000000E+00
   P  6
   1   1.30643989E+03   2.82928007E-03   0.00000000E+00
   2   3.09253114E+02   2.27766292E-02   0.00000000E+00
   3   9.89962740E+01   1.05645619E-01   0.00000000E+00
   4   3.67569165E+01   2.99499449E-01   0.00000000E+00
   5   1.45666571E+01   4.77062454E-01   0.00000000E+00
   6   5.87399374E+00   2.76542344E-01   0.00000000E+00
   P  3
   1   2.28909997E+01  -1.94121061E-02   0.00000000E+00
   2   3.08550018E+00   3.86188758E-01   0.00000000E+00
   3   1.21323291E+00   6.76239089E-01   0.00000000E+00
   P  1
   1   4.49316807E-01   1.00000000E+00   0.00000000E+00
   D  4
   1   4.37200745E+01   2.20932593E-02   0.00000000E+00
   2   1.23912427E+01   1.28014388E-01   0.00000000E+00
   3   4.26394420E+00   3.86529103E-01   0.00000000E+00
   4   1.55252218E+00   6.41033014E-01   0.00000000E+00
   D  1
   1   5.37619295E-01   1.00000000E+00   0.00000000E+00
   D  1
   1   1.64931731E-01   1.00000000E+00   0.00000000E+00
   P  1
   1   1.20675000E-01   1.00000000E+00   0.00000000E+00
   D  1
   1   5.10000000E-02   1.00000000E+00   0.00000000E+00
   F  1
   1   1.14700000E+00   1.00000000E+00   0.00000000E+00

 $END
 $VEC
 1  1-9.98295462E-01-5.33154639E-03 1.97306243E-03-1.73272728E-03 4.60836437E-04
 1  2-2.19225084E-04 9.74923427E-11-8.94611775E-13 5.28260710E-06-5.08389243E-11
 1  3-2.49514539E-11 4.04830006E-06-1.64667268E-11-7.47688201E-12-3.66607648E-06
 1  4-7.78848825E-07-7.78848825E-07 1.55769765E-06 1.39109206E-18 1.04831674E-14
 1  5 8.44052961E-15 2.88090548E-06 2.88090549E-06-5.76181097E-06 8.70709799E-19
 1  6 2.09829489E-14 1.56934717E-14-6.85586940E-06-6.85586940E-06 1.37117388E-05
 1  7 5.22466958E-19 7.80075611E-16-1.13347039E-14-4.27684344E-13-2.54326748E-13
 1  8 1.22529218E-05 5.43608740E-06 5.43608740E-06-1.08721748E-05 4.29257409E-20
 1  9 1.65393852E-14 4.72714680E-14-1.17820355E-16-1.54914067E-16 8.74128764E-08
 1 10-6.92370816E-17-5.86383401E-08-5.26046178E-17-5.86383401E-08 2.10677212E-16
 1 11 2.77076112E-16 9.50221109E-21-9.57565121E-05 6.03026276E-06-1.11025690E-05
 1 12 3.36999757E-06 3.58807980E-06 1.16990659E-05 5.26955305E-11-1.74151443E-10
 1 13 1.95707845E-05-6.98683188E-12 4.52937850E-11-5.78854433E-06-2.62103292E-12
 1 14 1.55216588E-11-1.82821436E-05 9.77436580E-07 9.77436580E-07-1.95487316E-06
 1 15 2.04278529E-22-2.94159317E-15 1.44839351E-14-3.20042174E-06-3.20042173E-06
 1 16 6.40084347E-06-1.26169102E-22 1.84732857E-15 1.86853226E-14 2.93462296E-06
 1 17 2.93462295E-06-5.86924591E-06 1.87888688E-22-1.69127645E-14-7.97603687E-15
 1 18-1.73052119E-14 1.16988687E-13 1.26112787E-05 1.61240013E-05 1.61240014E-05
 1 19-3.22480027E-05 1.34709544E-21 5.02547789E-14 3.14704502E-14 7.69673934E-17
 1 20 1.14949728E-16 5.08509797E-07 5.14079867E-17-3.41118742E-07 3.44207539E-17
 1 21-3.41118742E-07-1.37683348E-16-2.05629230E-16-1.93548713E-22
 2  1 9.13748479E-05 7.02149569E-06-1.14538906E-05 3.69737338E-06 3.50713825E-06
 2  2 1.17506675E-05-3.76538683E-11-1.54053141E-10-1.95729101E-05 1.18093117E-11
 2  3 3.13198665E-11 5.79000969E-06 4.01494524E-12 1.13320359E-11 1.82737020E-05
 2  4 9.78015205E-07 9.78015205E-07-1.95603041E-06-9.30569357E-18-2.32139423E-15
 2  5-5.84870365E-15-3.20336132E-06-3.20336131E-06 6.40672263E-06-6.26338863E-18
 2  6-5.41441027E-15-1.56058957E-14 2.94238367E-06 2.94238368E-06-5.88476735E-06
 2  7-3.55958585E-18 9.60605713E-16 4.29129121E-15 7.96986915E-14 1.43289341E-13
 2  8-1.25959158E-05 1.61112055E-05 1.61112055E-05-3.22224110E-05-3.32284753E-19
 2  9-8.26279391E-15-3.01971020E-14 4.98022616E-17 1.88847137E-16-5.10243389E-07
 2 10 8.44496966E-17 3.42281671E-07 2.22654401E-17 3.42281671E-07-8.90821856E-17
 2 11-3.37814719E-16 5.96631951E-21-9.98295462E-01-5.33153937E-03 1.97307310E-03
 2 12-1.73277307E-03 4.60912804E-04-2.19305901E-04-9.06867672E-13-2.28708374E-12
 2 13-5.28733904E-06 7.21652951E-13 1.93499790E-12-4.04580691E-06 2.26271306E-13
 2 14 6.01400626E-13 3.66398710E-06-7.97407340E-07-7.97407340E-07 1.59481468E-06
 2 15-1.58950537E-20 5.30420066E-16 1.75659993E-15 2.89602618E-06 2.89602618E-06
 2 16-5.79205236E-06-1.43998894E-20-1.30805862E-15-4.92191079E-15-6.84610480E-06
 2 17-6.84610480E-06 1.36922096E-05 2.11951437E-21 5.53971008E-15 1.96902868E-14
 2 18 9.41254687E-15 3.11371597E-14-1.22401545E-05 5.42583730E-06 5.42583730E-06
 2 19-1.08516746E-05-7.61628452E-21-1.71333592E-14-6.13708902E-14-3.50410460E-17
 2 20-1.40557832E-16-9.75315089E-08-6.28353919E-17 6.54261252E-08-1.56917818E-17
 2 21 6.54261252E-08 6.27042784E-17 2.51413512E-16 2.13914311E-21
 3  1 6.30798236E-02-2.61280061E-01 4.48872634E-01 3.30195662E-01 1.03951696E-02
 3  2-3.31682712E-03-3.19842122E-11 2.78484553E-11-1.99627754E-02 1.39010395E-11
 3  3-8.29597461E-12 1.51594771E-03 4.57982927E-12-2.84074034E-12 6.39122203E-04
 3  4-1.62026241E-05-1.62026240E-05 3.24052481E-05 2.63744368E-17-4.78444779E-15
 3  5 1.70427539E-15 1.10320186E-05 1.10320186E-05-2.20640372E-05 5.63443199E-17
 3  6-1.14578446E-14 4.97792850E-15-1.90678260E-06-1.90678259E-06 3.81356519E-06
 3  7 3.70299454E-17 1.25600763E-14-3.96067660E-15 9.42550275E-14-5.02521084E-14
 3  8-4.31231765E-05 2.34790067E-04 2.34790068E-04-4.69580135E-04 4.18909148E-18
 3  9-4.88369860E-14 1.67933377E-14 2.00089811E-16-4.39632170E-17-8.87177993E-06
 3 10-9.80824038E-18 5.95137090E-06 1.14010058E-16 5.95137090E-06-3.82458710E-16
 3 11 6.87910853E-17-8.40849482E-18 6.30817711E-02-2.61270304E-01 4.48919311E-01
 3 12 3.30087233E-01 1.06186372E-02-3.50550989E-03 1.91225833E-10-5.79936321E-11
 3 13 1.99631853E-02-3.20519646E-11 3.23187348E-12-1.51820949E-03-1.16138234E-11
 3 14 1.53052812E-12-6.30402246E-04 8.06055405E-06 8.06055405E-06-1.61211081E-05
 3 15-3.33490803E-19-9.70249866E-15 5.73272198E-16 5.07147195E-07 5.07147195E-07
 3 16-1.01429439E-06 1.40725380E-17-1.50097436E-14 3.11261185E-15-1.87517464E-05
 3 17-1.87517464E-05 3.75034928E-05-2.62549203E-18 9.32361715E-15-5.19032957E-15
 3 18-2.67009351E-14-3.13217080E-14 2.56186426E-05 2.11039854E-04 2.11039853E-04
 3 19-4.22079707E-04 1.02378079E-18-3.57497890E-14 1.78059605E-14-7.90359755E-17
 3 20 4.73512706E-17 3.31536123E-06-1.86712453E-17-2.22401192E-06-3.54325791E-17
 3 21-2.22401192E-06 1.41470467E-16-4.48571505E-17 1.97656865E-18
 4  1 6.38367538E-02-2.63700843E-01 4.48673371E-01 3.29802157E-01 1.04434622E-02
 4  2-3.70273886E-03-5.27517632E-11 4.67799750E-11-3.47102024E-02 1.69074467E-11
 4  3-1.28527985E-11 4.58117383E-03 5.74050230E-12-4.44850702E-12 1.39918099E-03
 4  4-2.80440706E-05-2.80440707E-05 5.60881413E-05-8.64378120E-17-4.75694902E-15
 4  5 3.49387992E-15 7.76592425E-05 7.76592425E-05-1.55318485E-04-1.21150719E-16
 4  6-1.17005886E-14 8.99272706E-15-1.21064189E-04-1.21064188E-04 2.42128377E-04
 4  7-7.50273907E-17 1.01665655E-14-7.91104076E-15 1.04452533E-13-7.08892261E-14
 4  8 3.67727674E-04-1.60842381E-04-1.60842382E-04 3.21684763E-04-7.49458006E-18
 4  9-4.22279112E-14 3.29887861E-14 2.03871475E-16-9.72502056E-17-3.11094512E-06
 4 10-4.85666604E-17 2.08688543E-06 9.76837888E-17 2.08688543E-06-3.71206074E-16
 4 11 1.79041503E-16-1.84427497E-18-6.38385847E-02 2.63689110E-01-4.48722431E-01
 4 12-3.29680890E-01-1.07155015E-02 3.88337951E-03 1.42626119E-10-1.15123130E-10
 4 13-3.47101547E-02-2.31958176E-11 1.30035327E-11 4.58066579E-03-8.44589381E-12
 4 14 5.06114509E-12 1.40100008E-03 4.55453257E-06 4.55453257E-06-9.10906514E-06
 4 15 2.55237942E-19-6.76019602E-15 3.49229451E-15-5.83004065E-05-5.83004065E-05
 4 16 1.16600813E-04-1.40957048E-17-1.20475550E-14 7.93292521E-15 1.44527804E-04
 4 17 1.44527804E-04-2.89055608E-04 2.65630529E-18 1.07777473E-14-8.92014674E-15
 4 18-1.16398457E-14-2.34051550E-14 3.86359835E-04 1.11451772E-04 1.11451772E-04
 4 19-2.22903544E-04-9.54803144E-19-3.85419282E-14 3.14692027E-14-1.63982358E-16
 4 20 8.79233669E-17 5.42808624E-06 7.89179511E-17-3.64127095E-06-7.31680882E-17
 4 21-3.64127095E-06 2.93173508E-16-1.96879526E-16-1.90110599E-18
 5  1-1.95958860E-01 6.58198119E-01-1.17285263E-02-3.09001644E-02 1.12311010E-03
 5  2-2.48861429E-04 3.51336387E-11 3.66196248E-11-3.62715982E-01-1.76555689E-12
 5  3-7.33322833E-12 1.48071375E-01-9.75525859E-13-2.65117097E-12 4.89296214E-02
 5  4 7.22526860E-06 7.22526860E-06-1.44505372E-05-6.05456460E-18 7.65009492E-16
 5  5-8.43466197E-16 3.37192365E-05 3.37192364E-05-6.74384729E-05-1.24314291E-18
 5  6 3.19614458E-15-1.71595640E-15-6.74200970E-05-6.74200970E-05 1.34840194E-04
 5  7 4.24901618E-18-4.93962722E-15 1.05677572E-14 2.99632302E-14-4.74712817E-14
 5  8 1.19709633E-03 7.49569970E-05 7.49569970E-05-1.49913994E-04 9.32343379E-19
 5  9 1.90241020E-14-3.31190716E-14-8.76156000E-17 7.41483176E-17-5.50507268E-06
 5 10 4.27811863E-17 3.69291502E-06-3.08655017E-17 3.69291502E-06 1.48414164E-16
 5 11-1.42261593E-16-3.36732767E-18-1.96077069E-01 6.58131865E-01-1.35608877E-02
 5 12-2.86889195E-02 3.77418289E-04-4.06927986E-05-6.10659929E-11 1.83043199E-10
 5 13 3.62791478E-01 1.12567633E-11-3.66909598E-11-1.48322161E-01 4.02396927E-12
 5 14-1.29559636E-11-4.88022331E-02 1.94699707E-05 1.94699707E-05-3.89399414E-05
 5 15 1.29248205E-18 3.16943451E-15-1.18330810E-14 5.61237525E-05 5.61237525E-05
 5 16-1.12247505E-04-3.05156521E-18 5.64156998E-15-1.35428094E-14-7.25215770E-05
 5 17-7.25215770E-05 1.45043154E-04 1.63845646E-18-4.79944396E-15-8.98254570E-16
 5 18 1.20121346E-14-7.03308117E-14-8.23335346E-04 2.31084478E-05 2.31084479E-05
 5 19-4.62168957E-05-7.77913917E-19 1.74099541E-14-4.09722170E-15 6.10379751E-17
 5 20-6.59263964E-17-2.59262547E-06-2.28038361E-17 1.73918604E-06 2.53240076E-17
 5 21 1.73918604E-06-1.07215045E-16 1.11253378E-16-1.52507014E-18
 6  1 2.22442554E-01-7.45964370E-01 3.13642666E-03 2.75342209E-02-1.24117336E-03
 6  2 3.76749175E-04-7.97287571E-11 4.34388837E-11-8.72322277E-02 2.18529444E-11
 6  3-6.63389655E-12 3.11756654E-02 7.55743260E-12-2.54058751E-12 1.05233483E-02
 6  4 1.08513399E-05 1.08513399E-05-2.17026798E-05 3.04830715E-18-4.46607087E-15
 6  5 2.09842161E-15-1.41629363E-05-1.41629362E-05 2.83258725E-05-3.72192652E-18
 6  6-1.08527259E-14 5.84532861E-15 3.72291376E-05 3.72291376E-05-7.44582752E-05
 6  7-2.32902393E-18 3.40629229E-15-6.24782643E-15 1.33181817E-13-1.04782187E-14
 6  8 7.64175041E-05 4.20683227E-05 4.20683228E-05-8.41366455E-05-3.16678238E-19
 6  9-2.13662948E-14 2.53637540E-14 1.21815887E-16-1.02820496E-16-3.02186858E-06
 6 10-4.96245972E-17 2.02713107E-06 4.95159799E-17 2.02713107E-06-2.12949142E-16
 6 11 1.87572768E-16 3.70404006E-19-2.22581271E-01 7.45907250E-01-5.24723033E-03
 6 12-2.50997791E-02 6.49920083E-04-3.13555018E-04 2.06362928E-11-7.83843702E-11
 6 13-8.72509519E-02-1.68038347E-12 1.49403231E-11 3.12359720E-02-7.14304346E-13
 6 14 5.31627196E-12 1.05042371E-02-1.26046988E-05-1.26046987E-05 2.52093975E-05
 6 15 7.59780327E-19 1.59063881E-16 4.39054036E-15 1.76350291E-05 1.76350292E-05
 6 16-3.52700583E-05-7.27997974E-19-4.02410851E-15 7.59565218E-15-3.59810917E-05
 6 17-3.59810918E-05 7.19621835E-05 1.28693556E-19 1.16308913E-14-6.79239498E-15
 6 18 1.88558779E-14 1.76724872E-14-3.97421977E-05-5.97425615E-05-5.97425615E-05
 6 19 1.19485123E-04-4.87673464E-20-3.68259523E-14 2.42003780E-14-8.47214405E-17
 6 20 8.04939683E-17-1.67156671E-06 3.80748636E-17 1.12132104E-06-3.87604842E-17
 6 21 1.12132104E-06 1.52426224E-16-1.46068855E-16 2.53566243E-19
 7  1-1.09510266E-01 3.66281590E-01 6.39830762E-03-7.49552993E-03 5.60220935E-04
 7  2-2.52479056E-04 2.16434141E-11-1.52341706E-10 6.43821660E-01-4.78381250E-13
 7  3 3.35792884E-11-2.32178622E-01-4.11396052E-13 1.19762663E-11-7.76122866E-02
 7  4-1.47576418E-05-1.47576418E-05 2.95152836E-05 5.12062148E-18-1.45867309E-15
 7  5-3.36787843E-15-5.83715895E-05-5.83715895E-05 1.16743179E-04-3.75401105E-18
 7  6-2.61620986E-15-9.50487825E-15 7.86260865E-05 7.86260865E-05-1.57252173E-04
 7  7-1.14932909E-17 6.10775674E-15-1.04255395E-14 1.34540419E-14 1.88181834E-13
 7  8-1.75868052E-03-4.10563789E-05-4.10563788E-05 8.21127577E-05-1.77550937E-18
 7  9-2.04507113E-14 2.05387964E-14 5.95645238E-17 3.71665165E-17 7.05163823E-06
 7 10 3.23116219E-18-4.73038273E-06 1.54419903E-17-4.73038273E-06-9.53561848E-17
 7 11-5.30952766E-17 6.65709534E-18-1.09584222E-01 3.66268739E-01 5.30680323E-03
 7 12-6.33486783E-03 5.45365810E-04-5.37893158E-04 1.05902192E-10-2.29869096E-10
 7 13-6.43990257E-01-2.28534897E-11 5.00558863E-11 2.32761313E-01-7.99537244E-12
 7 14 1.74825515E-11 7.71668847E-02-2.94904622E-05-2.94904621E-05 5.89809243E-05
 7 15-3.50401255E-19-7.19980655E-15 1.69927393E-14-1.00212727E-04-1.00212727E-04
 7 16 2.00425454E-04 2.73578684E-18-8.48869657E-15 1.43118047E-14 1.09355865E-04
 7 17 1.09355866E-04-2.18711731E-04-2.08058819E-18 1.00980229E-16 1.52270079E-14
 7 18-4.93642575E-14 1.26477225E-13 1.27642169E-03 6.90746610E-05 6.90746610E-05
 7 19-1.38149322E-04 1.02133199E-18-4.33601830E-15-3.85943944E-14-4.06119785E-17
 7 20-1.16146199E-17 6.37346663E-06-9.83028129E-18-4.27545139E-06-1.71321522E-17
 7 21-4.27545139E-06 7.16188389E-17 2.54129291E-17 2.25887188E-18
 8  1 9.03274686E-11 1.63680252E-12-6.32768705E-12-4.38584129E-12-1.06135055E-13
 8  2 3.49793866E-13-1.77782593E-01-7.24814468E-01 8.50176379E-11 4.19008024E-02
 8  3 1.70828354E-01 2.55857353E-11 1.47942196E-02 6.03156037E-02 6.44791446E-12
 8  4-1.33727131E-14-1.38916611E-14 2.72643742E-14-8.79396651E-18-5.66736865E-06
 8  5-2.31056976E-05 1.96688051E-14 1.98572543E-14-3.95260594E-14-1.43876003E-17
 8  6-1.48131719E-05-6.03928722E-05-5.38550455E-14-5.39540815E-14 1.07809127E-13
 8  7 1.01180954E-16-6.62266291E-06-2.70004033E-05 2.41702831E-04 9.85415420E-04
 8  8 6.27147756E-13-5.05191433E-14-5.09087427E-14 1.01427886E-13-8.23665098E-17
 8  9 3.80993100E-06 1.55329742E-05 9.62722440E-08 3.92499155E-07 1.17164817E-15
 8 10 1.75530958E-07-7.98950949E-16 4.30542563E-08-7.72980023E-16-1.72217025E-07
 8 11-7.02123833E-07 1.19208640E-17 1.04071303E-10 1.24589687E-11 4.65313367E-12
 8 12 3.28714646E-12 8.77968807E-14-1.92894128E-13-1.77850247E-01-7.25090277E-01
 8 13 4.82032731E-10 4.21417149E-02 1.71810543E-01-1.13694990E-10 1.45689907E-02
 8 14 5.93973504E-02-3.94455408E-11 2.28474522E-14 2.27491041E-14-4.55965563E-14
 8 15 8.12102169E-17 1.47843059E-05 6.02751846E-05 1.83350657E-14 1.82918518E-14
 8 16-3.66269175E-14 1.31817229E-16 9.87272656E-06 4.02508178E-05 6.20670099E-15
 8 17 6.24995921E-15-1.24566602E-14-4.16838183E-17 2.01027205E-05 8.19582078E-05
 8 18 1.26350429E-04 5.15127018E-04-1.56247977E-13 4.52833477E-14 4.52567508E-14
 8 19-9.05400985E-14 1.97256489E-17-5.55603289E-05-2.26517849E-04-6.28683153E-08
 8 20-2.56312307E-07-7.13272018E-16-1.14626348E-07 4.43394525E-16-2.81155653E-08
 8 21 5.13560306E-16 1.12462261E-07 4.58505393E-07-7.28565686E-18
 9  1 1.26272318E-10 5.34729590E-12-8.21255903E-11-5.85946188E-11-1.98376589E-12
 9  2 6.74477103E-13 7.24814457E-01-1.77782590E-01-1.16444891E-10-1.70828352E-01
 9  3 4.19008018E-02 4.45402103E-11-6.03156028E-02 1.47942194E-02 1.48423986E-11
 9  4 8.97847148E-15 9.11154272E-15-1.80900142E-14-1.34860543E-16 2.31056970E-05
 9  5-5.66736851E-06 3.32419729E-16-3.35201519E-16 2.78178989E-18-1.22923595E-16
 9  6 6.03928706E-05-1.48131715E-05-4.93012785E-16-2.52429790E-16 7.45442575E-16
 9  7-6.30934762E-17 2.70004044E-05-6.62266319E-06-9.85415410E-04 2.41702829E-04
 9  8 3.10123259E-13-2.29505188E-15-2.63212758E-15 4.92717946E-15 3.00135387E-16
 9  9-1.55329791E-05 3.80993225E-06-3.92499132E-07 9.62722384E-08-4.69338230E-16
 9 10 4.30542539E-08 3.73577302E-16-1.75530948E-07 2.56106010E-16 7.02123793E-07
 9 11-1.72217016E-07 9.09796749E-18-3.79095103E-12 1.48023255E-11-1.90098138E-11
 9 12-1.41516327E-11-4.49100398E-13 1.87729354E-13 7.25090288E-01-1.77850250E-01
 9 13 1.01938920E-10-1.71810546E-01 4.21417156E-02-4.04842939E-11-5.93973512E-02
 9 14 1.45689909E-02-1.32987308E-11 2.53539075E-15 3.44095201E-15-5.97634276E-15
 9 15 2.06004690E-18-6.02751852E-05 1.47843061E-05 2.15392291E-14 2.11091831E-14
 9 16-4.26484122E-14 1.82737722E-16-4.02508192E-05 9.87272694E-06-2.92355181E-14
 9 17-2.89153277E-14 5.81508458E-14-6.04137987E-17-8.19582061E-05 2.01027200E-05
 9 18-5.15127021E-04 1.26350430E-04-2.78197457E-13-4.53956627E-14-4.55589676E-14
 9 19 9.09546303E-14-1.81588330E-17 2.26517843E-04-5.55603274E-05 2.56312289E-07
 9 20-6.28683109E-08-1.83902566E-15-2.81155635E-08 1.18941496E-15 1.14626341E-07
 9 21 1.27789687E-15-4.58505362E-07 1.12462254E-07 7.16385112E-18
10  1 2.88795656E-02-9.91405836E-02 2.14934814E-02 1.87414544E-02 3.56720682E-04
10  2 6.51273925E-04 1.45002241E-08 6.04344032E-09 7.38418868E-01-3.04682273E-09
10  3-1.27163597E-09-1.45819586E-01-1.09698920E-09-4.57712970E-10-5.33793518E-02
10  4-5.69560795E-05-5.69560795E-05 1.13912159E-04-5.30938105E-17 7.59125699E-13
10  5 3.09795225E-13 8.94786550E-06 8.94786550E-06-1.78957310E-05-3.60811564E-17
10  6 1.95305116E-12 7.99156655E-13-8.67114545E-05-8.67114545E-05 1.73422909E-04
10  7-1.87980338E-17-1.35301553E-12-5.31653341E-13-1.33522108E-11-5.62468418E-12
10  8 2.10938623E-06-2.04796868E-04-2.04796867E-04 4.09593735E-04-2.07588863E-18
10  9 6.17069583E-12 2.45961691E-12-2.83744179E-14-1.14690927E-14 9.93096622E-06
10 10-5.12114764E-15-6.66189467E-06-1.26764329E-14-6.66189467E-06 5.07447092E-14
10 11 2.05085502E-14-2.99993017E-18-2.89019133E-02 9.91407201E-02-2.18154329E-02
10 12-1.84178565E-02-4.04410749E-04-5.79889163E-04-1.43575396E-08-5.49756397E-09
10 13 7.38713955E-01 3.03804475E-09 1.15009484E-09-1.46873594E-01 1.06700512E-09
10 14 4.04555926E-10-5.23681789E-02 4.37879277E-05 4.37879277E-05-8.75758554E-05
10 15 7.87133112E-19 8.59150481E-13 3.20963490E-13-2.92385425E-05-2.92385424E-05
10 16 5.84770849E-05-2.05197678E-18 1.75111785E-12 6.84316994E-13 1.20276955E-04
10 17 1.20276955E-04-2.40553910E-04 6.62746786E-19-2.17303331E-12-8.95878447E-13
10 18 3.93494383E-12 1.36111065E-12 4.62552557E-04 1.67335322E-04 1.67335323E-04
10 19-3.34670645E-04-1.89159455E-19 7.34172885E-12 3.00964186E-12 2.14943252E-14
10 20 8.66900109E-15 2.65466256E-06 3.88274921E-15-1.78080178E-06 9.61125368E-15
10 21-1.78080178E-06-3.84489170E-14-1.55134346E-14-1.62987706E-18
11  1 4.58134767E-10-1.91158520E-09 3.76714776E-10 3.34034744E-10 6.00492779E-12
11  2 1.28240827E-11-5.33391396E-01-5.20249561E-01 1.42347122E-08 1.12059780E-01
11  3 1.09298822E-01-2.80478016E-09 4.03477680E-02 3.93536692E-02-1.02712927E-09
11  4-1.09625521E-12-1.09588055E-12 2.19213576E-12 1.09336621E-16-2.79809191E-05
11  5-2.72915180E-05 1.72664779E-13 1.72167623E-13-3.44832402E-13-2.05477731E-16
11  6-7.19944545E-05-7.02206367E-05-1.67042710E-12-1.67024011E-12 3.34066721E-12
11  7 2.12380381E-16 5.01170394E-05 4.88822434E-05 4.90536393E-04 4.78450428E-04
11  8 9.73645890E-14-3.95931345E-12-3.95924755E-12 7.91856100E-12-2.75249648E-16
11  9-2.28184403E-04-2.22562338E-04 1.04727665E-06 1.02147358E-06 1.91867724E-13
11 10 4.56816872E-07-1.28655036E-13 4.68356354E-07-1.28762528E-13-1.87342542E-06
11 11-1.82726749E-06-3.82748679E-19-4.68543245E-10 1.91389834E-09-4.42240989E-10
11 12-3.70438123E-10-8.35292038E-12-1.09848005E-11 5.33604150E-01 5.20457082E-01
11 13 1.42246275E-08-1.12818350E-01-1.10038704E-01-2.83141897E-09-3.96269701E-02
11 14-3.86506312E-02-1.00939095E-09 8.43298195E-13 8.43512445E-13-1.68681064E-12
11 15-8.27214976E-17-3.19430219E-05-3.11560020E-05-5.61685366E-13-5.61471964E-13
11 16 1.12315733E-12 2.46008167E-17-6.48501113E-05-6.32523182E-05 2.31573047E-12
11 17 2.31567293E-12-4.63140340E-12-1.12916795E-17 8.00449954E-05 7.80728262E-05
11 18-1.46517252E-04-1.42907325E-04 8.88912103E-12 3.20679663E-12 3.20679539E-12
11 19-6.41359202E-12 1.98498468E-18-2.70612183E-04-2.63944771E-04-7.93586942E-07
11 20-7.74034344E-07 5.07863534E-14-3.46158682E-07-3.41993293E-14-3.54902870E-07
11 21-3.39377138E-14 1.41961148E-06 1.38463473E-06-1.96743455E-17
12  1 2.34626414E-10-5.80641802E-10 2.74185415E-11 3.94803317E-11-2.54896364E-13
12  2 6.28058184E-12-5.20249572E-01 5.33391393E-01 5.81633365E-09 1.09298825E-01
12  3-1.12059779E-01-1.13475105E-09 3.93536702E-02-4.03477677E-02-4.16282437E-10
12  4-4.48540795E-13-4.48181129E-13 8.96721924E-13 1.08134378E-16-2.72915184E-05
12  5 2.79809189E-05 6.85573598E-14 6.81826742E-14-1.36740034E-13-1.90120827E-16
12  6-7.02206377E-05 7.19944542E-05-6.91559337E-13-6.91113163E-13 1.38267250E-12
12  7 4.89025630E-16 4.88822430E-05-5.01170395E-05 4.78450444E-04-4.90536388E-04
12  8 2.05568726E-13-1.63317195E-12-1.63365933E-12 3.26683128E-12-2.94197974E-16
12  9-2.22562338E-04 2.28184403E-04 1.02147359E-06-1.04727665E-06 8.03370060E-14
12 10-4.68356354E-07-5.39183475E-14 4.56816875E-07-5.38650565E-14-1.82726750E-06
12 11 1.87342542E-06 2.34150990E-17-2.75520628E-10 7.53219416E-10-1.64716255E-10
12 12-1.39450180E-10-2.99544924E-12-4.72438182E-12 5.20457070E-01-5.33604153E-01
12 13 5.99484045E-09-1.10038701E-01 1.12818351E-01-1.21498274E-09-3.86506303E-02
12 14 3.96269705E-02-4.31932960E-10 3.53797718E-13 3.54658340E-13-7.08456058E-13
12 15 3.66275554E-17-3.11560010E-05 3.19430222E-05-2.08389476E-13-2.09037134E-13
12 16 4.17426610E-13 2.01072618E-16-6.32523176E-05 6.48501115E-05 9.23128259E-13
12 17 9.23546031E-13-1.84667429E-12-6.74037257E-17 7.80728275E-05-8.00449949E-05
12 18-1.42907316E-04 1.46517255E-04 3.40960692E-12 1.28893308E-12 1.28875138E-12
12 19-2.57768446E-12-1.38353969E-17-2.63944774E-04 2.70612182E-04-7.74034350E-07
12 20 7.93586942E-07 1.89651150E-14 3.54902870E-07-1.26309278E-14-3.46158684E-07
12 21-1.28134440E-14 1.38463474E-06-1.41961148E-06 2.63804695E-17
13  1-6.41912693E-03 2.19474377E-02-4.92625054E-03-3.66703359E-03-4.20203152E-04
13  2-2.43045045E-04-3.79653751E-12 1.07819883E-12-1.05317453E-01 7.36090539E-12
13  3-3.07784320E-12-5.47175288E-01 2.25542629E-12-9.35444295E-13-1.62472561E-01
13  4-4.98059985E-05-4.98059985E-05 9.96119970E-05 2.04070568E-17-2.16163899E-15
13  5 4.29293014E-16-1.07250049E-04-1.07250049E-04 2.14500098E-04 9.41271403E-19
13  6-3.70383266E-15 6.77978114E-16 1.15538469E-04 1.15538468E-04-2.31076937E-04
13  7-2.06335116E-17 8.81329005E-16 1.16052526E-15 7.32343761E-14-3.31647873E-14
13  8-6.13566345E-03-9.71755175E-06-9.71755175E-06 1.94351035E-05-3.42841843E-18
13  9-5.96174621E-15-3.05311960E-15 3.80338867E-17 3.16017095E-17 1.91091261E-05
13 10-1.68457799E-17-1.28187915E-05-9.48491352E-18-1.28187915E-05-4.15429002E-17
13 11-2.55523625E-17 1.38315561E-17-6.42887500E-03 2.19874509E-02-4.99012001E-03
13 12-3.83888503E-03 9.08765794E-05-3.59701627E-04 1.04273352E-11 9.73878565E-12
13 13 1.05894296E-01-6.82044868E-12-8.64310323E-12 5.44858253E-01-2.19203662E-12
13 14-2.74439936E-12 1.66180514E-01-9.03157670E-05-9.03157670E-05 1.80631534E-04
13 15-1.66160877E-18-1.67227323E-15-2.98749849E-15-1.49518885E-04-1.49518885E-04
13 16 2.99037770E-04 6.70672194E-18-2.76397963E-15-2.90036065E-15 9.80589955E-05
13 17 9.80589955E-05-1.96117991E-04-4.86727952E-18 1.88130181E-15-4.00113809E-16
13 18-2.89693238E-14-4.20289569E-14 3.58674832E-03 7.87954215E-05 7.87954215E-05
13 19-1.57590843E-04 2.36319159E-18-6.40901977E-15 4.07420446E-16-2.06859753E-17
13 20-6.92275491E-18 7.22380118E-06-1.47311620E-17-4.84587315E-06-5.83958689E-18
13 21-4.84587315E-06 3.35927351E-17 2.40190123E-17 5.00676481E-18
14  1 2.52387746E-12 1.18573429E-11-1.64983353E-11-1.21974167E-11-3.81743820E-13
14  2 1.33327920E-13-1.26889711E-02 2.08262487E-02-7.01402261E-12 3.05261998E-01
14  3-5.01022678E-01 9.60504588E-12 9.16516789E-02-1.50426748E-01 2.98182044E-12
14  4-1.94813419E-15-4.52853352E-16 2.40098754E-15 2.72581852E-16-5.21639099E-05
14  5 8.56159691E-05 9.08745969E-15 7.48498761E-15-1.65724473E-14-1.18138568E-16
14  6-1.03021790E-04 1.69088367E-04-7.08938176E-15-6.52577544E-15 1.36151572E-14
14  7 2.66377530E-16-2.62724999E-05 4.31207236E-05 3.29060422E-03-5.40082730E-03
14  8 9.15352807E-14 2.44362625E-15 2.79694271E-15-5.24056896E-15 1.57694599E-16
14  9 8.78050726E-06-1.44113365E-05 2.79237759E-08-4.58309418E-08 9.25867407E-17
14 10-2.04962200E-08 2.96306701E-16 1.24878923E-08-4.20524848E-16-4.99515690E-08
14 11 8.19848808E-08-1.36214602E-16 5.04301000E-12-2.91584912E-12 3.68332361E-13
14 12 3.19145554E-13 1.85946330E-14-1.32211218E-14-1.24305476E-02 2.04021020E-02
14 13 4.19783409E-12 3.04190446E-01-4.99263952E-01-3.78108893E-12 9.35277990E-02
14 14-1.53506000E-01-1.19331430E-12 1.46456508E-15 8.07610429E-16-2.27217551E-15
14 15-4.82838206E-16 1.05616134E-04-1.73346432E-04 7.27442933E-15 7.06940907E-15
14 16-1.43438384E-14-4.35330715E-16 8.49942814E-05-1.39500045E-04-8.43913091E-15
14 17-8.67472109E-15 1.71138520E-14 1.17671251E-16 5.35431374E-05-8.78796778E-05
14 18 1.76574461E-03-2.89809442E-03-2.59922182E-14-7.66304876E-15-7.39470194E-15
14 19 1.50577507E-14 3.21941203E-17-1.38969929E-04 2.28089596E-04 3.80363113E-07
14 20-6.24285192E-07-4.33589441E-16-2.79188825E-07 4.35922957E-16 1.70103555E-07
14 21 1.45798322E-16-6.80414221E-07 1.11675530E-06-3.52025837E-18
15  1-2.61661259E-11 1.62616884E-12-5.87324664E-12-4.32268291E-12-1.17980412E-13
15  2 8.55798052E-14-2.08262488E-02-1.26889711E-02 1.07827290E-12 5.01022677E-01
15  3 3.05261998E-01-2.99992272E-11 1.50426748E-01 9.16516788E-02-9.00836966E-12
15  4-1.20673872E-14-1.27000677E-14 2.47674549E-14-7.37517576E-17-8.56159690E-05
15  5-5.21639098E-05-7.98411645E-17 5.59003419E-16-4.79162254E-16-7.79954524E-17
15  6-1.69088367E-04-1.03021790E-04-1.05961292E-14-1.03570779E-14 2.09532071E-14
15  7-2.62661635E-16-4.31207236E-05-2.62724999E-05 5.40082730E-03 3.29060421E-03
15  8-2.84559556E-13-1.10360084E-14-1.19679555E-14 2.30039639E-14 7.20878796E-17
15  9 1.44113366E-05 8.78050752E-06 4.58309416E-08 2.79237753E-08 1.51891120E-15
15 10 1.24878916E-08-1.38821259E-15 2.04962199E-08-6.49620623E-16-8.19848805E-08
15 11-4.99515675E-08 5.29759208E-17 2.88418098E-12-6.34957499E-12-2.00375204E-12
15 12-1.28884638E-12-4.85025982E-14-2.85038178E-14-2.04021021E-02-1.24305476E-02
15 13-5.09898667E-13 4.99263952E-01 3.04190446E-01-2.62209940E-11 1.53506000E-01
15 14 9.35277991E-02-8.07162928E-12 7.09896871E-15 6.57221139E-15-1.36711801E-14
15 15 4.41843668E-17 1.73346432E-04 1.05616134E-04 5.66312811E-15 4.03646922E-15
15 16-9.69959733E-15 1.62966896E-16 1.39500045E-04 8.49942816E-05 2.77683088E-15
15 17 3.57875843E-15-6.35558931E-15-1.12606109E-16 8.78796778E-05 5.35431373E-05
15 18 2.89809442E-03 1.76574461E-03-1.08192966E-13 6.91303322E-15 6.76030308E-15
15 19-1.36733363E-14 1.36029612E-16-2.28089596E-04-1.38969929E-04 6.24285192E-07
15 20 3.80363114E-07-5.04144040E-16 1.70103556E-07 3.11112435E-16 2.79188825E-07
15 21 3.65267771E-16-1.11675530E-06-6.80414223E-07-3.80832597E-17