%chk=Cr2_40_uhf.chk
%mem=10GB
%nprocshared=8
#p scf(xqc,maxcycle=512) nosymm int(nobasistransform) guess(fragment=2) UHF/def2TZVP 5D 7F

HF file generated by AutoMR of MOKIT

0 1 0 7 0 -7
Cr(fragment=1)       0.00000000     0.00000000     0.00000000
Cr(fragment=2)       0.00000000     0.00000000     4.00000000

--Link1--
%chk=Cr2_40_uhf.chk
%mem=10GB
%nprocshared=8
#p scf(xqc,maxcycle=512) UHF chkbasis stable=opt nosymm guess=read geom=allcheck int(nobasistransform)


