 $CONTRL SCFTYP=GVB RUNTYP=ENERGY ICHARG=0 MULT=1 NOSYM=1 ICUT=11
  MAXIT=500 ISPHER=1 $END
 $SYSTEM MWORDS=156 $END
 $SCF NCO=18 NPAIR=6 DIRSCF=.TRUE. $END
 $GUESS GUESS=MOREAD NORB=90 $END
 $DATA
GAMESS inp file produced by MOKIT,nif=90,nbf=90
C1   1
Cr   24.         0.00000000         0.00000000         0.00000000
   S  8
   1   2.54477807E+05   2.42904776E-04   0.00000000E+00
   2   3.81317971E+04   1.88435236E-03   0.00000000E+00
   3   8.67529306E+03   9.80095844E-03   0.00000000E+00
   4   2.45500998E+03   3.98250087E-02   0.00000000E+00
   5   7.99162178E+02   1.29405437E-01   0.00000000E+00
   6   2.86900215E+02   3.06290018E-01   0.00000000E+00
   7   1.11254132E+02   4.34628350E-01   0.00000000E+00
   8   4.38641526E+01   2.24695629E-01   0.00000000E+00
   S  4
   1   2.79326692E+02  -2.43633579E-02   0.00000000E+00
   2   8.62747324E+01  -1.15114954E-01   0.00000000E+00
   3   1.35557561E+01   5.50922663E-01   0.00000000E+00
   4   5.69781128E+00   5.36113547E-01   0.00000000E+00
   S  2
   1   8.56365826E+00  -3.71230177E-01   0.00000000E+00
   2   1.39882968E+00   1.16811695E+00   0.00000000E+00
   S  1
   1   5.72881711E-01   1.00000000E+00   0.00000000E+00
   S  1
   1   9.00961713E-02   1.00000000E+00   0.00000000E+00
   S  1
   1   3.41258851E-02   1.00000000E+00   0.00000000E+00
   P  6
   1   1.30643989E+03   2.82928007E-03   0.00000000E+00
   2   3.09253114E+02   2.27766292E-02   0.00000000E+00
   3   9.89962740E+01   1.05645619E-01   0.00000000E+00
   4   3.67569165E+01   2.99499449E-01   0.00000000E+00
   5   1.45666571E+01   4.77062454E-01   0.00000000E+00
   6   5.87399374E+00   2.76542344E-01   0.00000000E+00
   P  3
   1   2.28909997E+01  -1.94121061E-02   0.00000000E+00
   2   3.08550018E+00   3.86188758E-01   0.00000000E+00
   3   1.21323291E+00   6.76239089E-01   0.00000000E+00
   P  1
   1   4.49316807E-01   1.00000000E+00   0.00000000E+00
   D  4
   1   4.37200745E+01   2.20932593E-02   0.00000000E+00
   2   1.23912427E+01   1.28014388E-01   0.00000000E+00
   3   4.26394420E+00   3.86529103E-01   0.00000000E+00
   4   1.55252218E+00   6.41033014E-01   0.00000000E+00
   D  1
   1   5.37619295E-01   1.00000000E+00   0.00000000E+00
   D  1
   1   1.64931731E-01   1.00000000E+00   0.00000000E+00
   P  1
   1   1.20675000E-01   1.00000000E+00   0.00000000E+00
   D  1
   1   5.10000000E-02   1.00000000E+00   0.00000000E+00
   F  1
   1   1.14700000E+00   1.00000000E+00   0.00000000E+00

Cr   24.         0.00000000         0.00000000         3.00000001
   S  8
   1   2.54477807E+05   2.42904776E-04   0.00000000E+00
   2   3.81317971E+04   1.88435236E-03   0.00000000E+00
   3   8.67529306E+03   9.80095844E-03   0.00000000E+00
   4   2.45500998E+03   3.98250087E-02   0.00000000E+00
   5   7.99162178E+02   1.29405437E-01   0.00000000E+00
   6   2.86900215E+02   3.06290018E-01   0.00000000E+00
   7   1.11254132E+02   4.34628350E-01   0.00000000E+00
   8   4.38641526E+01   2.24695629E-01   0.00000000E+00
   S  4
   1   2.79326692E+02  -2.43633579E-02   0.00000000E+00
   2   8.62747324E+01  -1.15114954E-01   0.00000000E+00
   3   1.35557561E+01   5.50922663E-01   0.00000000E+00
   4   5.69781128E+00   5.36113547E-01   0.00000000E+00
   S  2
   1   8.56365826E+00  -3.71230177E-01   0.00000000E+00
   2   1.39882968E+00   1.16811695E+00   0.00000000E+00
   S  1
   1   5.72881711E-01   1.00000000E+00   0.00000000E+00
   S  1
   1   9.00961713E-02   1.00000000E+00   0.00000000E+00
   S  1
   1   3.41258851E-02   1.00000000E+00   0.00000000E+00
   P  6
   1   1.30643989E+03   2.82928007E-03   0.00000000E+00
   2   3.09253114E+02   2.27766292E-02   0.00000000E+00
   3   9.89962740E+01   1.05645619E-01   0.00000000E+00
   4   3.67569165E+01   2.99499449E-01   0.00000000E+00
   5   1.45666571E+01   4.77062454E-01   0.00000000E+00
   6   5.87399374E+00   2.76542344E-01   0.00000000E+00
   P  3
   1   2.28909997E+01  -1.94121061E-02   0.00000000E+00
   2   3.08550018E+00   3.86188758E-01   0.00000000E+00
   3   1.21323291E+00   6.76239089E-01   0.00000000E+00
   P  1
   1   4.49316807E-01   1.00000000E+00   0.00000000E+00
   D  4
   1   4.37200745E+01   2.20932593E-02   0.00000000E+00
   2   1.23912427E+01   1.28014388E-01   0.00000000E+00
   3   4.26394420E+00   3.86529103E-01   0.00000000E+00
   4   1.55252218E+00   6.41033014E-01   0.00000000E+00
   D  1
   1   5.37619295E-01   1.00000000E+00   0.00000000E+00
   D  1
   1   1.64931731E-01   1.00000000E+00   0.00000000E+00
   P  1
   1   1.20675000E-01   1.00000000E+00   0.00000000E+00
   D  1
   1   5.10000000E-02   1.00000000E+00   0.00000000E+00
   F  1
   1   1.14700000E+00   1.00000000E+00   0.00000000E+00

 $END
 $VEC
 1  1 6.39943470E-04-1.26280702E-05 7.36837186E-06 1.20287817E-04-1.37782116E-04
 1  2 1.02104508E-05-1.18913803E-10 4.14821580E-11-4.83979723E-05 3.35097848E-11
 1  3-1.40741867E-11 1.31402977E-05 1.15489200E-11-4.74300750E-12 6.43000652E-05
 1  4 9.80812435E-07 9.80812435E-07-1.96162487E-06-7.18258365E-19-1.70462280E-14
 1  5 7.16886965E-15-7.45650865E-06-7.45650865E-06 1.49130173E-05-4.81634038E-19
 1  6-3.02089621E-14 1.26530506E-14 4.72086410E-05 4.72086410E-05-9.44172820E-05
 1  7-2.68590098E-19-3.76485503E-15 1.31233702E-15 1.76992114E-13-8.67162984E-14
 1  8-1.88194559E-04 1.84966128E-05 1.84966128E-05-3.69932256E-05-2.89243400E-20
 1  9-4.10422364E-14 1.52794079E-14-1.21856564E-15 5.19997051E-16-6.24400752E-06
 1 10 2.32544505E-16 4.18860758E-06-5.44958196E-16 4.18860758E-06 2.17983556E-15
 1 11-9.30193757E-16-6.36953849E-23-9.98273061E-01-5.40482822E-03 2.09415842E-03
 1 12-1.73928631E-03 5.93611676E-04-2.12690078E-04-5.77158328E-12 2.30646434E-12
 1 13 2.76212841E-05 4.55102026E-12-1.81847895E-12-2.62537047E-05 1.41793753E-12
 1 14-5.67486960E-13 4.97764830E-05-3.71449024E-06-3.71449023E-06 7.42898047E-06
 1 15-1.72066721E-19 2.01518266E-15-7.36549826E-16 1.56244366E-05 1.56244366E-05
 1 16-3.12488732E-05 8.48725743E-20 2.33760171E-15-1.04227137E-15-5.31933245E-05
 1 17-5.31933245E-05 1.06386649E-04-4.52179019E-20-9.52748940E-15 3.98647196E-15
 1 18 8.81437798E-14-3.35501857E-14-1.63776845E-04 1.82973659E-06 1.82973658E-06
 1 19-3.65947317E-06 1.57213672E-20-7.15992637E-14 2.65606143E-14-1.72379741E-15
 1 20 6.62361650E-16-4.45206672E-06 2.96220251E-16 2.98653715E-06-7.70904676E-16
 1 21 2.98653715E-06 3.08362158E-15-1.18487166E-15 7.10770961E-22
 2  1-9.98273062E-01-5.40485592E-03 2.09415106E-03-1.73908177E-03 5.93334241E-04
 2  2-2.12575044E-04 4.17103374E-11 5.56789453E-11-2.76811325E-05-1.49163395E-11
 2  3-1.28349150E-11 2.62684447E-05-4.98610711E-12-4.55179614E-12-4.96935940E-05
 2  4-3.69063018E-06-3.69063018E-06 7.38126036E-06 8.36502542E-18 2.41667485E-15
 2  5 6.15882695E-15 1.55988892E-05 1.55988892E-05-3.11977784E-05 5.88823576E-18
 2  6 1.03785995E-14 1.14581158E-14-5.31481050E-05-5.31481050E-05 1.06296210E-04
 2  7 3.19258571E-18-8.69329978E-15 1.05217765E-15-1.25328305E-13-5.43490719E-14
 2  8 1.63537696E-04 1.86588882E-06 1.86588882E-06-3.73177764E-06 3.24670897E-19
 2  9-1.05270561E-14 1.70869202E-14 1.43779932E-15 5.05552371E-16 4.38942717E-06
 2 10 2.26119108E-16-2.94451726E-06 6.42997697E-16-2.94451726E-06-2.57200791E-15
 2 11-9.04388789E-16-2.70213891E-21-6.40918705E-04-1.95613180E-05 1.00533583E-05
 2 12 1.18044642E-04-1.36994340E-04 9.89575616E-06 8.38803369E-11 4.36648509E-12
 2 13 4.84312490E-05-2.11078633E-11-3.26318649E-12-1.31707197E-05-7.24002369E-12
 2 14-1.02742005E-12-6.42433867E-05 9.75136310E-07 9.75136310E-07-1.95027262E-06
 2 15 1.74656361E-20-1.37486139E-14-1.86250510E-15-7.43100895E-06-7.43100895E-06
 2 16 1.48620179E-05 1.04852685E-20-1.95200254E-14-2.12530879E-15 4.71343665E-05
 2 17 4.71343665E-05-9.42687330E-05 1.38954126E-20 5.17292607E-15 3.80289147E-15
 2 18-7.10761583E-14-4.41489376E-14 1.88003812E-04 1.84988912E-05 1.84988911E-05
 2 19-3.69977823E-05 5.12627307E-21 1.09990035E-14 3.09772196E-14 2.07988722E-15
 2 20 8.35694328E-16 6.22005580E-06 3.73732317E-16-4.17254028E-06 9.30153040E-16
 2 21-4.17254028E-06-3.72061457E-15-1.49493391E-15-2.78268098E-21
 3  1 3.94853590E-02-1.81545316E-01 4.46310711E-01 3.24369033E-01 1.20648109E-02
 3  2-3.82735459E-03 5.35906981E-12 4.53681644E-11 7.27278355E-03 1.32990292E-12
 3  3-2.17537804E-11 7.97803371E-03 3.26854274E-13-7.08882203E-12 1.35067404E-03
 3  4-5.59381130E-05-5.59381130E-05 1.11876226E-04 3.57755212E-17-6.44378849E-16
 3  5 9.89468536E-15 4.14137523E-05 4.14137523E-05-8.28275046E-05 2.50342481E-17
 3  6-5.19104260E-16 1.86075684E-14-4.09184047E-04-4.09184047E-04 8.18368094E-04
 3  7 2.71121805E-17-5.07212338E-16-7.50313201E-16 2.76988591E-14-1.70499556E-13
 3  8 2.18726671E-03-2.78644393E-04-2.78644392E-04 5.57288785E-04 3.12449645E-19
 3  9 8.33063277E-15 1.06825062E-14-1.21236891E-16 1.09117467E-15 1.61975846E-05
 3 10 4.25761641E-16-1.08656701E-05-6.24650056E-17-1.08656701E-05 2.25121363E-16
 3 11-1.88972608E-15 1.16151016E-18-3.94865696E-02 1.81537093E-01-4.46343946E-01
 3 12-3.24284143E-01-1.23087647E-02 3.98974055E-03-3.51003188E-11 3.35259758E-11
 3 13 7.27361701E-03-1.95473181E-12-6.57311580E-12 7.97190999E-03-2.73112228E-13
 3 14-2.31251671E-12 1.37624033E-03 3.19465532E-05 3.19465533E-05-6.38931065E-05
 3 15-6.64810252E-17-1.46959211E-15-3.54731103E-15-2.51099982E-05-2.51099982E-05
 3 16 5.02199964E-05-2.26127490E-17-1.24263154E-15-5.75200412E-15 4.24846497E-04
 3 17 4.24846497E-04-8.49692994E-04 5.16142003E-18 4.58492318E-16 6.12644390E-15
 3 18-4.36543445E-14-3.96450799E-14 2.14630360E-03 2.35058309E-04 2.35058308E-04
 3 19-4.70116617E-04-1.46722048E-18 5.53610010E-15 2.81005373E-14 1.51751073E-16
 3 20 1.13445438E-15 4.88327046E-05 5.18914093E-16-3.27579741E-05 7.20336155E-17
 3 21-3.27579741E-05-2.75629045E-16-2.04094437E-15-1.14799916E-18
 4  1 3.00781731E-02-1.49411945E-01 4.42762530E-01 3.21758718E-01 1.01284875E-02
 4  2-3.33421979E-03 3.18518451E-11 4.45882838E-11 3.57571720E-02 1.20347934E-12
 4  3-2.42183803E-11 6.16180411E-03-4.56124087E-14-7.82154755E-12 9.79489677E-04
 4  4-8.16217415E-05-8.16217415E-05 1.63243483E-04 5.43141899E-18-2.42502672E-15
 4  5 1.42749692E-14 6.77271425E-05 6.77271425E-05-1.35454285E-04-5.33106475E-18
 4  6-9.49057027E-16 2.20644774E-14-1.17712821E-04-1.17712821E-04 2.35425642E-04
 4  7 1.15755766E-17-3.61256895E-15 5.79937872E-15 5.84217851E-14-1.84557239E-13
 4  8-2.71634075E-04 2.59987407E-04 2.59987408E-04-5.19974815E-04-9.47307388E-19
 4  9 1.02458389E-14 2.06178413E-14 1.06529040E-16 7.12658513E-16-1.72928331E-06
 4 10 2.94103112E-16 1.16003851E-06 5.17204949E-17 1.16003851E-06-1.94644200E-16
 4 11-1.25023484E-15 1.38143258E-18 3.00808955E-02-1.49389102E-01 4.42844526E-01
 4 12 3.21516129E-01 1.06705421E-02-3.42119078E-03-2.85871540E-11 1.48534598E-11
 4 13-3.57548025E-02-1.02678938E-11 6.29079465E-12-6.18428676E-03-2.87803867E-12
 4 14 1.80644095E-12-8.42530535E-04-5.63740060E-05-5.63740060E-05 1.12748012E-04
 4 15 6.65411873E-17-7.31045976E-15 5.31669304E-15 1.00936258E-04 1.00936259E-04
 4 16-2.01872517E-04 2.15301131E-17-8.43768230E-15 6.20990831E-15-3.16268269E-04
 4 17-3.16268269E-04 6.32536538E-04-4.32695048E-18 1.40751479E-15 5.50581932E-15
 4 18-9.48912167E-14 1.54526663E-14-2.53502240E-04 2.37044608E-04 2.37044608E-04
 4 19-4.74089216E-04 2.79559659E-18 1.36716263E-14 3.55049690E-14 9.09924687E-16
 4 20 3.33832203E-16-2.80850279E-05 1.37672893E-16 1.88400095E-05 4.03228994E-16
 4 21 1.88400095E-05-1.62402107E-15-5.85555793E-16 1.32618562E-18
 5  1 1.02644128E-01-3.46243027E-01 1.76358436E-02 2.52223195E-02-1.76882704E-03
 5  2 5.74914135E-04-1.61547298E-10 1.98918702E-10 6.31778363E-01 3.70984671E-11
 5  3-4.53236189E-11-3.30373354E-01 1.31738631E-11-1.60925690E-11-1.07523358E-01
 5  4-1.51653120E-04-1.51653120E-04 3.03306240E-04-1.88904980E-16-2.18860554E-14
 5  5 1.81508140E-14 1.21872611E-04 1.21872610E-04-2.43745221E-04-7.44989697E-17
 5  6-3.54685807E-14 3.80654840E-14 1.16702837E-04 1.16702836E-04-2.33405673E-04
 5  7-4.16259724E-17-1.09217436E-14-2.78495242E-15 1.32760373E-13-2.12684469E-13
 5  8-2.77642005E-03-2.32945177E-04-2.32945178E-04 4.65890355E-04-5.61152560E-18
 5  9-6.97853564E-14 3.86161189E-14-7.34279033E-16 2.54230679E-15-8.18765546E-05
 5 10 9.69559520E-16 5.49244626E-05-3.96714583E-16 5.49244626E-05 1.38185328E-15
 5 11-4.38042200E-15 1.17607071E-17 1.02680084E-01-3.46190881E-01 1.82541066E-02
 5 12 2.42871324E-02-9.45791151E-04 6.88389451E-06 4.99529374E-11 9.07208963E-11
 5 13-6.31836359E-01-5.68821710E-12-2.38000500E-11 3.30558037E-01-2.24829591E-12
 5 14-8.09163915E-12 1.07492188E-01-1.29698482E-04-1.29698483E-04 2.59396965E-04
 5 15-7.13854793E-19-4.83408354E-15-1.49372681E-14-1.29366656E-05-1.29366656E-05
 5 16 2.58733312E-05 6.76422426E-18-8.30525385E-15-1.95836366E-14 1.84763996E-04
 5 17 1.84763997E-04-3.69527993E-04-3.75489227E-18-1.02259677E-14 1.36744409E-14
 5 18 9.77327786E-14-1.59172565E-13 2.27021302E-03-1.46663752E-04-1.46663752E-04
 5 19 2.93327504E-04 1.73743391E-18-1.02335178E-13 9.68372298E-14-1.33263569E-15
 5 20 3.86720191E-15 1.47527547E-04 1.73412486E-15-9.89644871E-05-5.92333495E-16
 5 21-9.89644871E-05 2.38025190E-15-6.92252067E-15 1.08486253E-17
 6  1-2.27117430E-01 7.67185080E-01-5.36243557E-02-6.48253670E-02 9.12368184E-04
 6  2 1.45238646E-04 2.50772620E-10 8.97553974E-11 1.17280720E-01-5.70357913E-11
 6  3-4.24517279E-11-3.95040983E-02-2.02756366E-11-1.38409346E-11-1.35959046E-02
 6  4-3.75013736E-05-3.75013735E-05 7.50027471E-05 1.51984354E-17 3.03318819E-14
 6  5 1.50317169E-14 5.25947745E-05 5.25947745E-05-1.05189549E-04 1.44576523E-18
 6  6 5.24567584E-14 3.41584158E-14-3.17649364E-04-3.17649363E-04 6.35298727E-04
 6  7 1.87101138E-18 1.07658256E-14-1.01445514E-14-2.21197201E-13-3.52488876E-13
 6  8 8.67661313E-04-3.49085749E-05-3.49085750E-05 6.98171499E-05-1.09042566E-19
 6  9 8.93059139E-14 3.79702673E-15 1.75921112E-15 2.74592323E-15 3.51941760E-05
 6 10 1.24037841E-15-2.36089710E-05 7.87487642E-16-2.36089710E-05-3.14771703E-15
 6 11-4.92442101E-15 1.26906595E-18 2.27257267E-01-7.67124876E-01 5.57573421E-02
 6 12 6.23556393E-02-3.16508292E-04-2.09669674E-04-1.60650817E-11 1.12555516E-10
 6 13 1.17310254E-01-2.82774050E-12-3.00783497E-11-3.96088336E-02-6.55877404E-13
 6 14-1.02406122E-11-1.35051301E-02 2.79822536E-05 2.79822535E-05-5.59645071E-05
 6 15 2.67903298E-18-3.75271372E-16-1.86652156E-14-4.04415320E-05-4.04415319E-05
 6 16 8.08830639E-05 7.78057731E-18 1.62254448E-15-2.73129223E-14 3.01569581E-04
 6 17 3.01569581E-04-6.03139162E-04-2.70264496E-18 1.60926449E-14 1.31896462E-14
 6 18-1.62622870E-13-1.33989230E-13 9.70369647E-04 4.81610263E-05 4.81610264E-05
 6 19-9.63220527E-05 9.46803456E-19 1.47013712E-13 4.43329097E-14 2.88958767E-15
 6 20 3.56050489E-15 2.30073897E-05 1.58983282E-15-1.54338262E-05 1.29164161E-15
 6 21-1.54338262E-05-5.16843029E-15-6.36675140E-15-1.18260841E-18
 7  1-2.06733858E-01 7.00845228E-01-7.29762244E-02-7.56981991E-02-8.39195868E-04
 7  2 4.94067925E-04 1.90758166E-10 3.16539218E-11 3.35394719E-01-5.00147143E-11
 7  3 1.57842765E-11-1.24338550E-01-1.73809853E-11 4.31919662E-12-4.17020725E-02
 7  4-5.76443680E-05-5.76443680E-05 1.15288736E-04-6.06106881E-17 1.48520829E-14
 7  5-5.33720458E-15 7.83535930E-05 7.83535930E-05-1.56707186E-04-2.44900961E-17
 7  6 3.88211006E-14-1.23698100E-14-2.32628743E-05-2.32628743E-05 4.65257486E-05
 7  7-1.42817696E-17-1.39561655E-14 6.85230650E-15-3.06641820E-13 2.27950862E-13
 7  8-6.67828709E-04-1.06246907E-04-1.06246907E-04 2.12493814E-04-1.96640030E-18
 7  9 9.93566766E-15 1.47197594E-14 3.61232211E-15-1.11879142E-15-3.38239275E-05
 7 10-5.59268051E-16 2.26897803E-05 1.58872214E-15 2.26897803E-05-6.43516082E-15
 7 11 2.06028425E-15 3.96478972E-18-2.06875213E-01 7.00778506E-01-7.51427376E-02
 7 12-7.31269807E-02-1.71087039E-03 2.46969394E-04 1.80548980E-10-4.22167936E-11
 7 13-3.35492401E-01-4.50272499E-11 1.26739206E-11 1.24701728E-01-1.54355809E-11
 7 14 4.28001239E-12 4.12253692E-02-5.29190050E-05-5.29190050E-05 1.05838010E-04
 7 15-6.66064678E-18-2.89352773E-14 7.58022789E-15-3.14191313E-06-3.14191313E-06
 7 16 6.28382626E-06-6.78032705E-18-3.99879128E-14 1.26010403E-14 1.71989291E-04
 7 17 1.71989290E-04-3.43978581E-04 1.55997957E-18 1.59587884E-14-5.01844182E-15
 7 18-2.00130027E-13 3.45895827E-14 1.12700677E-03-4.27936095E-05-4.27936094E-05
 7 19 8.55872189E-05-6.20332446E-19 7.88315094E-14 1.12648932E-14 5.43432827E-15
 7 20-1.01335474E-15 7.45052203E-05-4.48451737E-16-4.99796212E-05 2.43196749E-15
 7 21-4.99796212E-05-9.72288394E-15 1.80800979E-15 3.86395482E-18
 8  1 3.59270165E-02-1.20843885E-01 4.51417096E-03 6.79285951E-03 2.10098566E-03
 8  2 1.18707793E-03-1.05420236E-10 7.88039805E-10 7.34355005E-01 3.24693647E-11
 8  3-2.23436189E-10-2.44171226E-01 1.10000760E-11-7.68232496E-11-8.31744529E-02
 8  4-2.09181483E-04-2.09181484E-04 4.18362967E-04-2.66907323E-17 9.82802751E-15
 8  5 5.97767361E-14-3.69012428E-05-3.69012428E-05 7.38024856E-05-3.62986545E-17
 8  6-1.30013027E-14 1.70774863E-13-6.12080585E-04-6.12080585E-04 1.22416117E-03
 8  7-1.81356790E-17 4.66556736E-14-7.97564394E-14 3.47135365E-13-1.49205095E-12
 8  8 1.36357914E-03-2.48257594E-04-2.48257595E-04 4.96515189E-04-1.13909981E-18
 8  9 1.06067432E-13 1.04194887E-14-5.80109592E-15 1.71739532E-14 7.89979358E-05
 8 10 7.69955662E-15-5.29934264E-05-2.59641445E-15-5.29934264E-05 1.03794013E-14
 8 11-3.07408327E-14 9.15133246E-18-3.59510306E-02 1.20842471E-01-4.86213464E-03
 8 12-6.43559969E-03-2.26157845E-03-9.82743686E-04-4.67160216E-10 8.39513251E-10
 8 13 7.34559503E-01 9.91900237E-11-2.31902878E-10-2.44875385E-01 3.47271353E-11
 8 14-7.87040710E-11-8.26405768E-02 1.23254870E-04 1.23254871E-04-2.46509741E-04
 8 15-6.06009966E-19 6.59441439E-14-1.49843505E-13 1.10913212E-04 1.10913211E-04
 8 16-2.21826423E-04-1.99283632E-18 9.39215343E-14-2.08064964E-13 5.74987575E-04
 8 17 5.74987575E-04-1.14997515E-03 8.77152967E-19-1.29300576E-14 7.43942602E-14
 8 18 2.08234024E-13-1.01693153E-12 1.92488266E-03 1.57874713E-04 1.57874714E-04
 8 19-3.15749427E-04-9.33302293E-19 2.28597425E-14 3.12541510E-13-8.49432693E-15
 8 20 2.60860155E-14 1.39533000E-05 1.16645269E-14-9.36015819E-06-3.80176424E-15
 8 21-9.36015819E-06 1.51980997E-14-4.66625892E-14-7.99710295E-18
 9  1 7.07705943E-11-1.33047762E-11-2.83225215E-11-1.91214807E-11-2.78394186E-12
 9  2-9.43393925E-13 2.48235031E-01 7.03951301E-01-8.08291971E-10-6.98838336E-02
 9  3-1.98178376E-01 3.03837908E-10-2.40521831E-02-6.82078004E-02 1.02149650E-10
 9  4 2.41585158E-13 2.41605222E-13-4.83190380E-13 1.67235592E-17 1.93465351E-05
 9  5 5.48634033E-05-2.31079698E-15-2.42651474E-15 4.73731172E-15-1.95608733E-16
 9  6 5.38545648E-05 1.52722163E-04 6.47565917E-13 6.47558043E-13-1.29512396E-12
 9  7 5.13791597E-18-2.36391360E-05-6.70364694E-05-4.59534159E-04-1.30315880E-03
 9  8-9.53445852E-13 2.83005675E-13 2.83091631E-13-5.66097306E-13 1.73738123E-16
 9  9 7.89812054E-06 2.23976980E-05 5.24976625E-06 1.48874222E-05-6.83575202E-14
 9 10 6.65785762E-06 4.58487536E-14 2.34776684E-06 4.58624836E-14-9.39106735E-06
 9 11-2.66314305E-05-1.94729012E-17-8.74839294E-12 2.93842119E-11-2.01001607E-13
 9 12-1.80474814E-12 2.60724142E-12 8.87667417E-13 2.48322105E-01 7.04198212E-01
 9 13-5.52888076E-10-7.01927028E-02-1.99054273E-01 1.88453139E-10-2.37661534E-02
 9 14-6.73966694E-02 6.36406484E-11-1.01102684E-13-1.01084748E-13 2.02187432E-13
 9 15-9.02974797E-17-4.53150970E-05-1.28505718E-04-1.06343419E-13-1.06314852E-13
 9 16 2.12658271E-13 1.42705230E-16-6.27723991E-05-1.78011584E-04-6.44274954E-13
 9 17-6.44285886E-13 1.28856084E-12-7.11460489E-17 2.32301025E-05 6.58765229E-05
 9 18-3.18148508E-04-9.02213731E-04-2.41248609E-12-1.49994294E-13-1.49949025E-13
 9 19 2.99943319E-13 3.32324969E-17 1.01049869E-04 2.86559825E-04 7.99998371E-06
 9 20 2.26865597E-05-4.46452703E-14 1.01457379E-05 2.98874538E-14 3.57770148E-06
 9 21 3.00104617E-14-1.43108059E-05-4.05829518E-05 3.23638739E-17
10  1-1.80434664E-10 3.88952078E-10-4.94701476E-11-4.84374787E-11-2.18162989E-12
10  2-6.95275872E-13-7.03951299E-01 2.48235036E-01-5.27303333E-10 1.98178375E-01
10  3-6.98838343E-02 2.13803257E-10 6.82078001E-02-2.40521833E-02 7.13155867E-11
10  4 1.80530941E-13 1.80441869E-13-3.60972810E-13-4.01923879E-16-5.48634026E-05
10  5 1.93465357E-05 4.73940013E-14 4.69567588E-14-9.43507601E-14 2.39190333E-16
10  6-1.52722162E-04 5.38545657E-05 4.66515900E-13 4.66381408E-13-9.32897308E-13
10  7-3.12188070E-16 6.70364700E-05-2.36391353E-05 1.30315879E-03-4.59534158E-04
10  8-7.50915071E-13 2.00529580E-13 2.00856955E-13-4.01386535E-13 6.17778295E-17
10  9-2.23976962E-05 7.89812367E-06-1.48874222E-05 5.24976621E-06-6.32127432E-14
10 10 2.34776682E-06 4.24349149E-14-6.65785762E-06 4.23738796E-14 2.66314305E-05
10 11-9.39106730E-06-3.18485149E-18 7.56053654E-11 4.32680793E-11 9.75490234E-13
10 12-5.11988455E-13 1.82240402E-12 7.06241665E-13-7.04198214E-01 2.48322100E-01
10 13-5.01359131E-10 1.99054274E-01-7.01927019E-02 2.16299245E-10 6.73966697E-02
10 14-2.37661531E-02 7.15107363E-11-1.08317265E-13-1.08399859E-13 2.16717124E-13
10 15-6.78571419E-17 1.28505719E-04-4.53150963E-05-1.08317073E-13-1.08305494E-13
10 16 2.16622567E-13 6.78141846E-17 1.78011585E-04-6.27723981E-05-4.22956627E-13
10 17-4.22965106E-13 8.45921733E-13-3.28027640E-17-6.58765227E-05 2.32301027E-05
10 18 9.02213734E-04-3.18148509E-04-1.24491501E-12-1.23334620E-13-1.23468335E-13
10 19 2.46802955E-13-5.57078375E-17-2.86559823E-04 1.01049873E-04-2.26865598E-05
10 20 7.99998371E-06-1.26041243E-15 3.57770148E-06 7.45319350E-16-1.01457380E-05
10 21 9.45701374E-16 4.05829519E-05-1.43108059E-05-4.36499629E-18
11  1-3.13809616E-11-2.48537939E-11 7.45079574E-12 6.23746335E-12-1.40286848E-13
11  2-3.00813869E-14 1.18704940E-01-7.36117560E-01 8.55754111E-12-2.60223749E-02
11  3 1.61370935E-01-5.58182019E-11-9.32198398E-03 5.78078395E-02-1.68778772E-11
11  4-2.48305779E-14-2.50940609E-14 4.99246388E-14 2.38161523E-16 2.11911525E-05
11  5-1.31411375E-04 1.46447890E-14 1.43416938E-14-2.89864828E-14-4.02656301E-17
11  6 2.81619830E-05-1.74639153E-04 4.16860206E-14 4.13612974E-14-8.30473180E-14
11  7 2.84466879E-16 1.93496794E-05-1.19991960E-04-5.25784190E-05 3.26051291E-04
11  8-7.12777312E-13-1.67535243E-14-1.65781219E-14 3.33316462E-14-2.01584950E-16
11  9 7.80275109E-05-4.83867143E-04-4.46345859E-07 2.76789652E-06-1.48708367E-14
11 10 1.23784095E-06 9.98447525E-15-1.99611936E-07 9.96684579E-15 7.98447745E-07
11 11-4.95136382E-06 1.25537476E-17-4.59106021E-11 2.69961036E-11 1.08905185E-13
11 12-6.70489395E-13-1.22874054E-14 1.63810676E-14-1.18751729E-01 7.36407688E-01
11 13-1.31358059E-10 2.61894116E-02-1.62406764E-01 4.90306559E-11 9.16316167E-03
11 14-5.68229427E-02 1.63268657E-11-2.04887019E-14-2.04621933E-14 4.09508952E-14
11 15-1.58372033E-17 1.84103912E-05-1.14167210E-04 7.47477816E-15 7.45996854E-15
11 16-1.49347467E-14 4.07636031E-17 2.70829611E-05-1.67947877E-04 8.82925948E-16
11 17 8.94170662E-16-1.77709661E-15-3.67538562E-17 5.89689202E-06-3.65680301E-05
11 18-1.89735142E-05 1.17659282E-04 1.93292125E-13-2.26246880E-14-2.26024059E-14
11 19 4.52270939E-14 3.54158998E-17 9.13762454E-05-5.66645822E-04-6.47648958E-07
11 20 4.01622482E-06 2.01680993E-14 1.79611034E-06-1.32635860E-14-2.89637419E-07
11 21-1.37947586E-14 1.15854968E-06-7.18444136E-06-9.70747452E-17
12  1 2.24202593E-11-1.48361373E-10-2.05931021E-11-9.42207705E-12-1.67978382E-12
12  2 8.51257982E-15 7.36117564E-01 1.18704943E-01-1.18307009E-10-1.61370936E-01
12  3-2.60223759E-02 2.52608029E-11-5.78078399E-02-9.32198432E-03 9.27019599E-12
12  4 4.44372360E-14 4.45403150E-14-8.89775510E-14-8.67962777E-17 1.31411375E-04
12  5 2.11911528E-05 1.03138685E-14 1.07277726E-14-2.10416411E-14-7.84956090E-17
12  6 1.74639154E-04 2.81619837E-05 2.40625132E-13 2.40371444E-13-4.80996576E-13
12  7-1.88449166E-16 1.19991960E-04 1.93496790E-05-3.26051299E-04-5.25784254E-05
12  8-8.82896033E-13 3.46027474E-14 3.47715759E-14-6.93743233E-14 7.77429973E-17
12  9 4.83867143E-04 7.80275110E-05-2.76789643E-06-4.46345783E-07-3.69021490E-14
12 10-1.99611903E-07 2.47600345E-14-1.23784091E-06 2.47493937E-14 4.95136365E-06
12 11 7.98447610E-07 1.78386156E-18-8.56322869E-11 5.17286311E-11-1.17159533E-11
12 12-1.01636079E-11 4.26854108E-13 2.93323805E-13-7.36407684E-01-1.18751726E-01
12 13-2.66467068E-10 1.62406763E-01 2.61894105E-02 1.10538425E-10 5.68229423E-02
12 14 9.16316132E-03 3.66272035E-11-5.06219313E-14-5.05670177E-14 1.01188949E-13
12 15 2.47509586E-16 1.14167209E-04 1.84103905E-05-2.74157139E-14-2.74813927E-14
12 16 5.48971066E-14-3.33211228E-16 1.67947876E-04 2.70829602E-05-1.69751387E-13
12 17-1.69733446E-13 3.39484833E-13 1.38677283E-16 3.65680305E-05 5.89689235E-06
12 18-1.17659288E-04-1.89735189E-05-3.87332366E-13-8.11893727E-14-8.11836003E-14
12 19 1.62372973E-13 1.49362329E-17 5.66645824E-04 9.13762468E-05-4.01622467E-06
12 20-6.47648842E-07 1.10207932E-14-2.89637367E-07-7.55325664E-15-1.79611028E-06
12 21-7.23268902E-15 7.18444111E-06 1.15854947E-06 1.01047613E-16
13  1-1.60755393E-02 5.24145131E-02 1.17437276E-02 8.01503532E-03-1.36247263E-03
13  2 2.25294303E-04 1.44019491E-11 1.01457388E-11-2.10771602E-01-1.84405846E-12
13  3 2.37230196E-11-4.99171712E-01-7.28947930E-13 6.96796473E-12-1.47241815E-01
13  4-2.27619211E-04-2.27619211E-04 4.55238422E-04-2.13917450E-16-3.91744587E-15
13  5-5.44607340E-15 7.00667060E-05 7.00667060E-05-1.40133412E-04-7.34467515E-17
13  6-2.74070126E-16-1.84933371E-14 3.08374113E-04 3.08374113E-04-6.16748226E-04
13  7-3.89288200E-17-9.50243139E-15 1.53255023E-14-1.75663581E-14 2.90555407E-13
13  8-6.18371802E-03-1.19308284E-04-1.19308284E-04 2.38616568E-04-6.45706655E-18
13  9-9.41590028E-15 1.09826539E-14 7.97508035E-16-1.81486138E-15-1.22254679E-04
13 10-1.05395698E-15 8.20109318E-05 2.52729358E-16 8.20109318E-05-1.32269867E-15
13 11 3.48884903E-15 1.92236695E-17-1.61165454E-02 5.24548071E-02 1.12272445E-02
13 12 8.23073222E-03-2.07013316E-04-1.61592757E-04 2.74927851E-11-3.39207477E-11
13 13 2.11368914E-01-2.03024523E-11 3.27320175E-11 4.96839612E-01-6.47834694E-12
13 14 1.03482177E-11 1.50681107E-01-1.77806614E-04-1.77806615E-04 3.55613229E-04
13 15 1.57985779E-18-1.37877537E-14 2.09064239E-14-8.55465070E-05-8.55465070E-05
13 16 1.71093014E-04 5.15464500E-18-1.84727032E-14 3.03115830E-14 2.38081674E-04
13 17 2.38081674E-04-4.76163348E-04-3.59251336E-18 2.47155053E-15-9.69112962E-15
13 18-9.77448070E-14 1.70101449E-13 3.79207487E-03-7.96044950E-05-7.96044950E-05
13 19 1.59208990E-04 1.91316240E-18-1.80833330E-15 8.73258472E-16 1.57796933E-15
13 20-2.72840526E-15 2.01153860E-04-1.21250362E-15-1.34938111E-04 7.10706139E-16
13 21-1.34938111E-04-2.82777415E-15 4.87304340E-15 1.63433899E-17
14  1 7.72460038E-04-3.45159479E-03 6.75612446E-03 4.87826421E-03 3.37147824E-03
14  2 7.75069427E-04-2.58652082E-12 4.56357250E-11-6.77605847E-02 1.22722889E-09
14  3-8.66627694E-10-5.61112166E-01 3.67435828E-10-2.60036145E-10-1.67857033E-01
14  4-4.12834051E-04-4.12834051E-04 8.25668102E-04 1.48689542E-16-4.01140924E-13
14  5 2.90778161E-13-1.49714415E-04-1.49714415E-04 2.99428830E-04 5.52287237E-17
14  6-1.02755115E-12 7.28328796E-13-7.84480360E-04-7.84480360E-04 1.56896072E-03
14  7 3.84120774E-17 5.37303204E-13-3.60709267E-13 1.35798066E-11-9.49661084E-12
14  8-2.34378005E-03-2.17990086E-04-2.17990087E-04 4.35980173E-04 4.26426745E-18
14  9-1.37201570E-13 1.24493968E-13-8.03285966E-14 5.55416174E-14 1.18991395E-04
14 10 2.48757683E-14-7.98218544E-05-3.59367018E-14-7.98218544E-05 1.43708823E-13
14 11-9.93926676E-14 2.29704871E-17-7.70747121E-04 3.45395654E-03-6.72844981E-03
14 12-4.95835607E-03-3.12195565E-03-6.82295519E-04-3.00823290E-12-1.78440274E-11
14 13-6.83313497E-02 1.23718190E-09-8.38564440E-10-5.58801989E-01 3.79094524E-10
14 14-2.56748584E-10-1.71583164E-01 2.77949347E-04 2.77949348E-04-5.55898695E-04
14 15-3.56324984E-18 7.81418321E-13-5.27999762E-13 2.62820828E-04 2.62820827E-04
14 16-5.25641655E-04-1.80528821E-18 1.13007388E-12-7.65076863E-13 7.60431225E-04
14 17 7.60431225E-04-1.52086245E-03 1.20169060E-18-4.77594843E-13 3.33396286E-13
14 18 7.96063215E-12-5.45491906E-12-1.53926471E-04 1.47347709E-04 1.47347710E-04
14 19-2.94695419E-04-1.39641216E-18-5.36584699E-13 4.09481420E-13-1.11777147E-13
14 20 7.66962300E-14-3.62820577E-05 3.42960167E-14 2.43387442E-05-4.99946539E-14
14 21 2.43387442E-05 1.99959434E-13-1.37194807E-13-1.83920373E-17
15  1 9.95467342E-13-2.33753315E-12 1.40994628E-11 9.93410019E-12 8.35085243E-12
15  2 1.90180065E-12-1.24710410E-02 1.51325983E-02-1.81522501E-10-3.65905180E-01
15  3 4.43996316E-01-1.36385064E-09-1.09386800E-01 1.32732027E-01-4.07786702E-10
15  4-1.00817741E-12-1.00856184E-12 2.01673925E-12 4.08805475E-16 1.20643850E-04
15  5-1.46391547E-04-3.73017743E-13-3.72449859E-13 7.45467602E-13-7.07106326E-16
15  6 3.06862765E-04-3.72353126E-04-1.95048894E-12-1.95099816E-12 3.90148710E-12
15  7 1.85162760E-17-1.58503582E-04 1.92331262E-04-4.06258690E-03 4.92962034E-03
15  8-5.55595390E-12-5.28809445E-13-5.28893545E-13 1.05770299E-12 4.92854516E-17
15  9 4.25211532E-05-5.15959800E-05 2.37917456E-05-2.88693571E-05 3.00436085E-13
15 10-1.29107690E-05-2.01603641E-13 1.06399921E-05-2.01473665E-13-4.25599683E-05
15 11 5.16430760E-05 3.99772931E-17-1.33502064E-14-1.11119613E-11-1.67800521E-11
15 12-1.19088912E-11-7.68820717E-12-1.67056673E-12-1.27897024E-02 1.55192682E-02
15 13-1.80795047E-10-3.64600823E-01 4.42413577E-01-1.40502856E-09-1.11594441E-01
15 14 1.35410818E-01-4.31301996E-10 6.95455665E-13 6.95525105E-13-1.39098077E-12
15 15-3.49487381E-17-2.30020568E-04 2.79111335E-04 6.57899009E-13 6.57758691E-13
15 16-1.31565770E-12 1.42497112E-16-3.33139865E-04 4.04238252E-04 1.86143359E-12
15 17 1.86161919E-12-3.72305278E-12-1.51073583E-16 1.42106283E-04-1.72434470E-04
15 18-2.35665743E-03 2.85961297E-03-5.91717496E-13 3.65806394E-13 3.65965613E-13
15 19-7.31772007E-13 1.97413096E-16 1.57436679E-04-1.91036667E-04 3.29336198E-05
15 20-3.99622811E-05-9.98703858E-14-1.78716754E-05 6.70294612E-14 1.47283625E-05
15 21 6.69607218E-14-5.89134501E-05 7.14867017E-05 7.49676128E-17