 $CONTRL SCFTYP=GVB RUNTYP=ENERGY ICHARG=0 MULT=1 NOSYM=1 ICUT=11
  MAXIT=500 ISPHER=1 $END
 $SYSTEM MWORDS=156 $END
 $SCF NCO=18 NPAIR=6 DIRSCF=.TRUE. $END
 $GUESS GUESS=MOREAD NORB=90 $END
 $DATA
GAMESS inp file produced by MOKIT,nif=90,nbf=90
C1   1
Cr   24.         0.00000000         0.00000000         0.00000000
   S  8
   1   2.54477807E+05   2.42904776E-04   0.00000000E+00
   2   3.81317971E+04   1.88435236E-03   0.00000000E+00
   3   8.67529306E+03   9.80095844E-03   0.00000000E+00
   4   2.45500998E+03   3.98250087E-02   0.00000000E+00
   5   7.99162178E+02   1.29405437E-01   0.00000000E+00
   6   2.86900215E+02   3.06290018E-01   0.00000000E+00
   7   1.11254132E+02   4.34628350E-01   0.00000000E+00
   8   4.38641526E+01   2.24695629E-01   0.00000000E+00
   S  4
   1   2.79326692E+02  -2.43633579E-02   0.00000000E+00
   2   8.62747324E+01  -1.15114954E-01   0.00000000E+00
   3   1.35557561E+01   5.50922663E-01   0.00000000E+00
   4   5.69781128E+00   5.36113547E-01   0.00000000E+00
   S  2
   1   8.56365826E+00  -3.71230177E-01   0.00000000E+00
   2   1.39882968E+00   1.16811695E+00   0.00000000E+00
   S  1
   1   5.72881711E-01   1.00000000E+00   0.00000000E+00
   S  1
   1   9.00961713E-02   1.00000000E+00   0.00000000E+00
   S  1
   1   3.41258851E-02   1.00000000E+00   0.00000000E+00
   P  6
   1   1.30643989E+03   2.82928007E-03   0.00000000E+00
   2   3.09253114E+02   2.27766292E-02   0.00000000E+00
   3   9.89962740E+01   1.05645619E-01   0.00000000E+00
   4   3.67569165E+01   2.99499449E-01   0.00000000E+00
   5   1.45666571E+01   4.77062454E-01   0.00000000E+00
   6   5.87399374E+00   2.76542344E-01   0.00000000E+00
   P  3
   1   2.28909997E+01  -1.94121061E-02   0.00000000E+00
   2   3.08550018E+00   3.86188758E-01   0.00000000E+00
   3   1.21323291E+00   6.76239089E-01   0.00000000E+00
   P  1
   1   4.49316807E-01   1.00000000E+00   0.00000000E+00
   D  4
   1   4.37200745E+01   2.20932593E-02   0.00000000E+00
   2   1.23912427E+01   1.28014388E-01   0.00000000E+00
   3   4.26394420E+00   3.86529103E-01   0.00000000E+00
   4   1.55252218E+00   6.41033014E-01   0.00000000E+00
   D  1
   1   5.37619295E-01   1.00000000E+00   0.00000000E+00
   D  1
   1   1.64931731E-01   1.00000000E+00   0.00000000E+00
   P  1
   1   1.20675000E-01   1.00000000E+00   0.00000000E+00
   D  1
   1   5.10000000E-02   1.00000000E+00   0.00000000E+00
   F  1
   1   1.14700000E+00   1.00000000E+00   0.00000000E+00

Cr   24.         0.00000000         0.00000000         4.00000002
   S  8
   1   2.54477807E+05   2.42904776E-04   0.00000000E+00
   2   3.81317971E+04   1.88435236E-03   0.00000000E+00
   3   8.67529306E+03   9.80095844E-03   0.00000000E+00
   4   2.45500998E+03   3.98250087E-02   0.00000000E+00
   5   7.99162178E+02   1.29405437E-01   0.00000000E+00
   6   2.86900215E+02   3.06290018E-01   0.00000000E+00
   7   1.11254132E+02   4.34628350E-01   0.00000000E+00
   8   4.38641526E+01   2.24695629E-01   0.00000000E+00
   S  4
   1   2.79326692E+02  -2.43633579E-02   0.00000000E+00
   2   8.62747324E+01  -1.15114954E-01   0.00000000E+00
   3   1.35557561E+01   5.50922663E-01   0.00000000E+00
   4   5.69781128E+00   5.36113547E-01   0.00000000E+00
   S  2
   1   8.56365826E+00  -3.71230177E-01   0.00000000E+00
   2   1.39882968E+00   1.16811695E+00   0.00000000E+00
   S  1
   1   5.72881711E-01   1.00000000E+00   0.00000000E+00
   S  1
   1   9.00961713E-02   1.00000000E+00   0.00000000E+00
   S  1
   1   3.41258851E-02   1.00000000E+00   0.00000000E+00
   P  6
   1   1.30643989E+03   2.82928007E-03   0.00000000E+00
   2   3.09253114E+02   2.27766292E-02   0.00000000E+00
   3   9.89962740E+01   1.05645619E-01   0.00000000E+00
   4   3.67569165E+01   2.99499449E-01   0.00000000E+00
   5   1.45666571E+01   4.77062454E-01   0.00000000E+00
   6   5.87399374E+00   2.76542344E-01   0.00000000E+00
   P  3
   1   2.28909997E+01  -1.94121061E-02   0.00000000E+00
   2   3.08550018E+00   3.86188758E-01   0.00000000E+00
   3   1.21323291E+00   6.76239089E-01   0.00000000E+00
   P  1
   1   4.49316807E-01   1.00000000E+00   0.00000000E+00
   D  4
   1   4.37200745E+01   2.20932593E-02   0.00000000E+00
   2   1.23912427E+01   1.28014388E-01   0.00000000E+00
   3   4.26394420E+00   3.86529103E-01   0.00000000E+00
   4   1.55252218E+00   6.41033014E-01   0.00000000E+00
   D  1
   1   5.37619295E-01   1.00000000E+00   0.00000000E+00
   D  1
   1   1.64931731E-01   1.00000000E+00   0.00000000E+00
   P  1
   1   1.20675000E-01   1.00000000E+00   0.00000000E+00
   D  1
   1   5.10000000E-02   1.00000000E+00   0.00000000E+00
   F  1
   1   1.14700000E+00   1.00000000E+00   0.00000000E+00

 $END
 $VEC
 1  1-9.98295464E-01-5.33153893E-03 1.97305391E-03-1.73273362E-03 4.60836244E-04
 1  2-2.19225018E-04-5.11925395E-11 6.63033207E-12 5.28331622E-06 1.06952111E-11
 1  3 3.49858528E-12 4.04819471E-06 3.84841495E-12 9.63100300E-13-3.66611225E-06
 1  4-7.78848420E-07-7.78848420E-07 1.55769684E-06 3.17737669E-17-6.17028174E-16
 1  5-3.91950484E-16 2.88090461E-06 2.88090461E-06-5.76180922E-06 2.12981304E-17
 1  6-2.79606185E-15-1.00224921E-16-6.85586820E-06-6.85586820E-06 1.37117364E-05
 1  7 1.20133807E-17-3.27107231E-15-2.77483201E-15 5.66222733E-14 4.90514772E-14
 1  8 1.22529183E-05 5.43608705E-06 5.43608705E-06-1.08721741E-05 1.13276658E-18
 1  9 6.58833731E-15 8.80600133E-15 9.59080045E-18-3.09800317E-17 8.74129917E-08
 1 10-1.39149552E-17-5.86384175E-08 4.31634233E-18-5.86384175E-08-1.71837514E-17
 1 11 5.54790293E-17-3.34271378E-20-9.57427185E-05 6.02952554E-06-1.11013183E-05
 1 12 3.37095890E-06 3.58810486E-06 1.16990548E-05-6.28832049E-11-3.81956491E-11
 1 13 1.95710478E-05 2.39396592E-11 8.38342001E-12-5.78862736E-06 7.92905818E-12
 1 14 2.92779097E-12-1.82821685E-05 9.77436500E-07 9.77436500E-07-1.95487300E-06
 1 15 3.84255543E-21 8.23559734E-15 2.64027137E-15-3.20042118E-06-3.20042118E-06
 1 16 6.40084236E-06 1.78948353E-21 6.94325402E-15 3.36207722E-15 2.93462168E-06
 1 17 2.93462167E-06-5.86924335E-06 7.54152958E-21 5.26156924E-15-7.83908821E-16
 1 18 9.40047642E-14 1.75431990E-14 1.26112745E-05 1.61239986E-05 1.61239985E-05
 1 19-3.22479971E-05 1.95252590E-20-1.33364881E-14 4.07176811E-15 3.15448162E-18
 1 20 2.64007811E-17 5.08509717E-07 1.18067032E-17-3.41118688E-07 1.41095310E-18
 1 21-3.41118688E-07-5.64313431E-18-4.72270679E-17-1.15671403E-21
 2  1 9.13598357E-05 7.02725567E-06-1.14635910E-05 3.69019275E-06 3.50691888E-06
 2  2 1.17507413E-05-5.95221302E-11 8.56172809E-12-1.95723807E-05 1.32129076E-11
 2  3 4.41696522E-13 5.78997844E-06 4.71163583E-12 2.43472773E-14 1.82736918E-05
 2  4 9.78015700E-07 9.78015700E-07-1.95603140E-06-1.49869989E-16-2.47657266E-15
 2  5-2.58343391E-16-3.20336236E-06-3.20336236E-06 6.40672472E-06-1.00247897E-16
 2  6-6.44301535E-15-4.94646321E-17 2.94238514E-06 2.94238513E-06-5.88477027E-06
 2  7-5.69031153E-17 1.64184562E-15-3.30510070E-16 6.73204623E-14 1.55093622E-14
 2  8-1.25959197E-05 1.61112056E-05 1.61112056E-05-3.22224112E-05-5.29936362E-18
 2  9-1.18998410E-14 1.21716118E-15 7.39378872E-17-8.63656318E-18-5.10243271E-07
 2 10-3.85957349E-18 3.42281592E-07 3.30616047E-17 3.42281592E-07-1.32259690E-16
 2 11 1.54467389E-17 7.71650108E-20-9.98295462E-01-5.33154040E-03 1.97307489E-03
 2 12-1.73277175E-03 4.60912847E-04-2.19305920E-04-9.84882716E-13-8.53368362E-14
 2 13-5.28702577E-06 8.19508318E-13 2.80223499E-14-4.04590190E-06 2.55290395E-13
 2 14 1.00061904E-14 3.66395886E-06-7.97407450E-07-7.97407450E-07 1.59481490E-06
 2 15 6.23805839E-19 7.07506982E-16-4.29120668E-17 2.89602689E-06 2.89602690E-06
 2 16-5.79205379E-06-4.18800358E-19-1.92795742E-15 2.20505996E-16-6.84610650E-06
 2 17-6.84610650E-06 1.36922130E-05 1.49031401E-19 7.80213021E-15-7.12701616E-16
 2 18 1.25366357E-14-7.79615021E-16-1.22401598E-05 5.42583425E-06 5.42583425E-06
 2 19-1.08516685E-05-1.62346554E-19-2.42818532E-14 2.29328187E-15-5.44755252E-17
 2 20 7.49137659E-18-9.75316019E-08 3.33700937E-18 6.54261875E-08-2.43627208E-17
 2 21 6.54261875E-08 9.74493072E-17-1.33877457E-17-2.80153914E-21
 3  1 6.30797431E-02-2.61279761E-01 4.48872124E-01 3.30195286E-01 1.03951577E-02
 3  2-3.31682291E-03-4.09192572E-11 7.14054272E-11-1.99627357E-02 8.51289117E-12
 3  3-1.53172671E-11 1.51594231E-03 3.06917569E-12-5.48752410E-12 6.39120551E-04
 3  4-1.62025936E-05-1.62025936E-05 3.24051872E-05 1.45554174E-16-2.06094979E-15
 3  5 1.80894394E-15 1.10319287E-05 1.10319286E-05-2.20638573E-05 1.19102476E-16
 3  6-5.03392111E-15 4.74448861E-15-1.90664623E-06-1.90664623E-06 3.81329246E-06
 3  7 9.89768729E-17 2.71094746E-15 4.37829354E-15 3.80578976E-14-8.28067122E-14
 3  8-4.31235961E-05 2.34790251E-04 2.34790250E-04-4.69580501E-04 6.87595799E-18
 3  9-1.36745866E-14-7.69103096E-15 8.83377307E-17 2.93581341E-18-8.87177642E-06
 3 10-2.93284189E-17 5.95136855E-06 6.74828877E-17 5.95136855E-06-1.86000390E-16
 3 11 2.53896119E-17-3.43204848E-17 6.30818326E-02-2.61270596E-01 4.48919822E-01
 3 12 3.30087608E-01 1.06186494E-02-3.50551431E-03 2.18890882E-11 1.05342030E-10
 3 13 1.99632248E-02-6.31650167E-12-1.74604893E-11-1.51821472E-03-2.14590784E-12
 3 14-6.32865532E-12-6.30403845E-04 8.06054825E-06 8.06054825E-06-1.61210965E-05
 3 15 2.13491278E-17-1.75270265E-15-5.91905202E-15 5.07213250E-07 5.07213250E-07
 3 16-1.01442650E-06 3.98566390E-17-3.90672100E-15-4.73321320E-15-1.87519107E-05
 3 17-1.87519107E-05 3.75038214E-05-7.83577321E-18 5.74114351E-15-7.14175920E-15
 3 18-1.28561569E-14-2.70598991E-14 2.56182037E-05 2.11039727E-04 2.11039727E-04
 3 19-4.22079454E-04 3.46307119E-18-1.88844133E-14 1.85563251E-14-4.80638616E-17
 3 20 1.57055218E-17 3.31535508E-06 2.28012657E-17-2.22400780E-06-4.17543467E-17
 3 21-2.22400780E-06 1.06238784E-16-4.38724342E-17 5.63782616E-18
 4  1 6.38368144E-02-2.63701140E-01 4.48673882E-01 3.29802532E-01 1.04434740E-02
 4  2-3.70274264E-03-9.70089293E-11 3.88767833E-11-3.47102257E-02 2.17843694E-11
 4  3-7.30852937E-12 4.58117590E-03 7.75644085E-12-2.68029516E-12 1.39918182E-03
 4  4-2.80440906E-05-2.80440906E-05 5.60881812E-05-1.57825739E-16-4.80594583E-15
 4  5 1.31323974E-15 7.76592535E-05 7.76592535E-05-1.55318507E-04-7.56526541E-17
 4  6-1.22070907E-14 3.31098622E-15-1.21064192E-04-1.21064192E-04 2.42128384E-04
 4  7 1.19452527E-17 6.12154167E-15-1.02956558E-16 1.08086432E-13-3.12132034E-14
 4  8 3.67727629E-04-1.60842114E-04-1.60842115E-04 3.21684229E-04-6.75500656E-18
 4  9-3.14728009E-14 4.12248588E-15 1.87058598E-16-1.89928463E-17-3.11095523E-06
 4 10-3.35293261E-17 2.08689221E-06 9.93935727E-17 2.08689221E-06-3.50359018E-16
 4 11 5.90109034E-17 2.56262792E-17-6.38385235E-02 2.63688805E-01-4.48721920E-01
 4 12-3.29680514E-01-1.07154894E-02 3.88337552E-03 5.13116273E-11 1.77725591E-11
 4 13-3.47101308E-02-1.04309130E-11-2.27580822E-12 4.58066347E-03-3.68659180E-12
 4 14-8.59629788E-13 1.40099917E-03 4.55454250E-06 4.55454250E-06-9.10908500E-06
 4 15-2.15831387E-17-2.59304874E-15-9.73211863E-16-5.83004055E-05-5.83004055E-05
 4 16 1.16600811E-04-3.98408113E-17-7.83534334E-15 3.38600499E-16 1.44527783E-04
 4 17 1.44527782E-04-2.89055565E-04 7.81583873E-18 1.38580766E-14-4.51111376E-15
 4 18-4.94479502E-15-4.45919161E-15 3.86359861E-04 1.11452012E-04 1.11452013E-04
 4 19-2.22904025E-04-2.11339602E-18-4.52112673E-14 1.35430837E-14-1.23781942E-16
 4 20 2.95677112E-17 5.42808999E-06-2.76201657E-18-3.64127346E-06-3.52677196E-17
 4 21-3.64127346E-06 2.01338622E-16-3.69072307E-17-5.50796099E-18
 5  1 1.95958838E-01-6.58198050E-01 1.17285263E-02 3.09001620E-02-1.12310997E-03
 5  2 2.48861399E-04-3.00043567E-11-2.17154199E-10 3.62715965E-01 6.56930354E-12
 5  3 4.46844392E-11-1.48071368E-01 2.35431245E-12 1.61329663E-11-4.89296190E-02
 5  4-7.22526960E-06-7.22526960E-06 1.44505392E-05 1.21546140E-16-2.90947774E-15
 5  5-8.01477653E-15-3.37192321E-05-3.37192321E-05 6.74384642E-05 6.93791264E-17
 5  6-7.14544045E-15-2.13835138E-14 6.74200880E-05 6.74200880E-05-1.34840176E-04
 5  7 5.55115547E-17 9.15930551E-15 4.37303541E-15 2.24141261E-14 2.09896821E-13
 5  8-1.19709625E-03-7.49569995E-05-7.49569995E-05 1.49913999E-04 2.39903537E-18
 5  9-3.49536226E-14-3.68511382E-14 1.37375668E-16 2.49393762E-16 5.50507217E-06
 5 10 1.09134972E-16-3.69291468E-06 5.30616841E-17-3.69291468E-06-2.37370484E-16
 5 11-4.43731815E-16 4.71355752E-17 1.96077101E-01-6.58131973E-01 1.35608913E-02
 5 12 2.86889252E-02-3.77418315E-04 4.06928309E-05 1.31401446E-10-3.00820208E-11
 5 13-3.62791430E-01-2.53027244E-11 7.75312444E-12 1.48322144E-01-8.98738663E-12
 5 14 2.63920304E-12 4.88022273E-02-1.94699673E-05-1.94699673E-05 3.89399346E-05
 5 15 1.19393975E-17-7.76053315E-15 4.00724572E-15-5.61237495E-05-5.61237495E-05
 5 16 1.12247499E-04-1.97998748E-18-1.14595916E-14-4.89748042E-15 7.25215755E-05
 5 17 7.25215755E-05-1.45043151E-04 1.17664439E-19 6.63777735E-15 2.72935144E-14
 5 18-3.65453619E-14 5.15063003E-14 8.23335282E-04-2.31084424E-05-2.31084424E-05
 5 19 4.62168848E-05 3.38066348E-20-2.56187643E-14-8.40699230E-14-9.73609361E-17
 5 20-1.85516584E-16 2.59262538E-06-8.23477335E-17-1.73918598E-06-4.28434367E-17
 5 21-1.73918598E-06 1.73466840E-16 3.31244349E-16 5.01213271E-18
 6  1 2.22442576E-01-7.45964450E-01 3.13642825E-03 2.75342248E-02-1.24117349E-03
 6  2 3.76749204E-04-1.05708691E-10 6.88970216E-11-8.72321848E-02 2.05618823E-11
 6  3-1.60291316E-11 3.11756482E-02 7.49672014E-12-5.67773430E-12 1.05233426E-02
 6  4 1.08513387E-05 1.08513388E-05-2.17026775E-05-1.17226742E-17-3.53485941E-15
 6  5 3.82228916E-15-1.41629396E-05-1.41629396E-05 2.83258792E-05-9.80284416E-18
 6  6-9.90175885E-15 9.84843892E-15 3.72291441E-05 3.72291442E-05-7.44582883E-05
 6  7 1.20754758E-18 2.18250056E-15-6.51468849E-15 8.93317317E-14-8.00030908E-14
 6  8 7.64173708E-05 4.20683109E-05 4.20683109E-05-8.41366218E-05-1.04752281E-18
 6  9-1.76960483E-14 2.99554150E-14 1.22293749E-16-1.38996454E-16-3.02186777E-06
 6 10-5.90687623E-17 2.02713053E-06 5.32347221E-17 2.02713053E-06-2.17309004E-16
 6 11 2.45552074E-16 5.79975570E-18-2.22581248E-01 7.45907174E-01-5.24723380E-03
 6 12-2.50997794E-02 6.49919916E-04-3.13554972E-04-1.28049280E-11-7.25641498E-11
 6 13-8.72509903E-02 4.72583797E-12 1.27278165E-11 3.12359879E-02 1.56021208E-12
 6 14 4.58559665E-12 1.05042423E-02-1.26047007E-05-1.26047007E-05 2.52094014E-05
 6 15-1.20769144E-17 2.30185561E-15 3.45600053E-15 1.76350225E-05 1.76350224E-05
 6 16-3.52700449E-05 3.35018022E-18-2.04497758E-15 7.90271180E-15-3.59810822E-05
 6 17-3.59810822E-05 7.19621644E-05-2.31720139E-18 1.31093505E-14-1.06778387E-14
 6 18 3.17099731E-14 5.37331436E-15-3.97421028E-05-5.97425640E-05-5.97425640E-05
 6 19 1.19485128E-04 8.52204438E-19-4.03852547E-14 3.59398422E-14-8.82373725E-17
 6 20 1.01036335E-16-1.67156641E-06 4.38170020E-17 1.12132084E-06-3.95400581E-17
 6 21 1.12132084E-06 1.57922916E-16-1.79371471E-16 7.13684827E-19
 7  1-1.09510254E-01 3.66281552E-01 6.39830881E-03-7.49552779E-03 5.60220886E-04
 7  2-2.52479035E-04 2.85809184E-11-5.14780907E-10 6.43821688E-01-6.28567101E-12
 7  3 1.04302305E-10-2.32178630E-01-2.23628973E-12 3.77584980E-11-7.76122895E-02
 7  4-1.47576430E-05-1.47576430E-05 2.95152860E-05 1.81580567E-16-1.16830659E-15
 7  5-1.87333428E-14-5.83715910E-05-5.83715910E-05 1.16743182E-04 1.12447325E-16
 7  6-2.13735950E-15-5.07045578E-14 7.86260875E-05 7.86260875E-05-1.57252175E-04
 7  7 8.09355973E-17 1.00426660E-14 1.20357463E-14-4.53806972E-14 4.78002267E-13
 7  8-1.75868057E-03-4.10563866E-05-4.10563867E-05 8.21127733E-05 4.14463067E-18
 7  9-3.20762589E-14-9.24979996E-14 9.44395730E-17 6.06668541E-16 7.05163779E-06
 7 10 2.66354273E-16-4.73038244E-06 2.81776793E-17-4.73038244E-06-1.54881662E-16
 7 11-1.08028553E-15 7.77298663E-17-1.09584214E-01 3.66268712E-01 5.30680099E-03
 7 12-6.33486864E-03 5.45365727E-04-5.37893143E-04 1.68732219E-10-4.25189344E-11
 7 13-6.43990266E-01-3.61799185E-11 1.56723577E-11 2.32761317E-01-1.26675158E-11
 7 14 5.15936678E-12 7.71668858E-02-2.94904623E-05-2.94904623E-05 5.89809246E-05
 7 15-4.23724926E-18-1.17208648E-14 8.75696253E-15-1.00212730E-04-1.00212730E-04
 7 16 2.00425460E-04 2.73545797E-18-1.34315978E-14-1.28773993E-14 1.09355870E-04
 7 17 1.09355871E-04-2.18711741E-04-3.74827899E-18-2.51593578E-16 6.49980086E-14
 7 18-7.75928266E-14 1.28976186E-13 1.27642173E-03 6.90746615E-05 6.90746615E-05
 7 19-1.38149323E-04 1.28769893E-18-5.73487626E-15-2.01145111E-13-6.73950856E-17
 7 20-4.48684842E-16 6.37346681E-06-2.02067480E-16-4.27545151E-06-2.91298602E-17
 7 21-4.27545151E-06 1.19549856E-16 8.04041365E-16 7.30789258E-18
 8  1-2.16838119E-12-2.42618517E-10 6.17794355E-11 5.21218382E-11 1.17523203E-12
 8  2 8.46206329E-13 7.39087388E-01-1.03502210E-01 1.02928176E-09-1.74192272E-01
 8  3 2.43939831E-02-1.87260902E-10-6.15033266E-02 8.61296023E-03-6.97151315E-11
 8  4-8.81272849E-14-8.83429171E-14 1.76470202E-13 1.30229437E-16 2.35606940E-05
 8  5-3.29945266E-06 2.58603986E-14 2.58646883E-14-5.17250869E-14-1.09491904E-16
 8  6 6.15821257E-05-8.62399503E-06-1.56205748E-13-1.56450953E-13 3.12656701E-13
 8  7-1.95211479E-16 2.75320717E-05-3.85560726E-06-1.00481998E-03 1.40715553E-04
 8  8 3.25963289E-13-3.10047926E-13-3.10068497E-13 6.20116423E-13 4.32478541E-16
 8  9-1.58387824E-05 2.21807393E-06-4.00228824E-07 5.60482514E-08 1.39077416E-14
 8 10 2.50655400E-08-9.34483717E-15-1.78987771E-07-9.31435621E-15 7.15951085E-07
 8 11-1.00262160E-07-1.22816851E-16-1.03214378E-10 2.12939194E-10-4.07531220E-11
 8 12-3.53978454E-11-7.21515228E-13-8.37433179E-13 7.39368348E-01-1.03541565E-01
 8 13 1.33726521E-09-1.75193739E-01 2.45342310E-02-2.73275652E-10-6.05669692E-02
 8 14 8.48183287E-03-9.69316782E-11 7.41982167E-14 7.37100703E-14-1.47908287E-13
 8 15-1.63300225E-17-6.14620915E-05 8.60718624E-06-2.98533328E-14-2.93177246E-14
 8 16 5.91710574E-14 9.03092480E-17-4.10434039E-05 5.74774199E-06 1.71956279E-13
 8 17 1.71698207E-13-3.43654486E-13-4.06487083E-17-8.35721196E-05 1.17034861E-05
 8 18-5.25270645E-04 7.35591990E-05 5.52244169E-13 2.66972420E-13 2.67101604E-13
 8 19-5.34074024E-13 8.26996497E-18 2.30978426E-04-3.23463467E-05 2.61359852E-07
 8 20-3.66009741E-08 3.35904953E-15-1.63684535E-08-2.18370702E-15 1.16883680E-07
 8 21-2.32293084E-15-4.67534718E-07 6.54738131E-08 3.34308500E-17
 9  1-8.30924006E-11 1.83304279E-10-9.05380433E-11-7.09386873E-11-1.99899967E-12
 9  2-3.69004702E-13 1.03502215E-01 7.39087377E-01-6.64634221E-10-2.43939842E-02
 9  3-1.74192269E-01 5.58663019E-11-8.61296062E-03-6.15033258E-02 2.56534739E-11
 9  4 6.43480774E-14 6.43381756E-14-1.28686253E-13-1.98363159E-16 3.29945293E-06
 9  5 2.35606935E-05-4.40073594E-14-4.38794378E-14 8.78867972E-14 9.92236537E-17
 9  6 8.62399573E-06 6.15821242E-05 1.53599585E-13 1.53916884E-13-3.07516469E-13
 9  7-2.75858719E-16 3.85560678E-06 2.75320727E-05-1.40715558E-04-1.00481997E-03
 9  8-1.09182400E-12 2.11611284E-13 2.11259905E-13-4.22871189E-13 2.99553067E-16
 9  9-2.21807173E-06-1.58387870E-05-5.60482616E-08-4.00228803E-07-7.22428880E-15
 9 10-1.78987762E-07 4.81949552E-15-2.50655443E-08 4.87290498E-15 1.00262178E-07
 9 11 7.15951048E-07 4.34061773E-17 2.04882965E-11-6.77517305E-11-5.16646413E-12
 9 12-1.77366481E-12-2.03577177E-13 8.04724037E-13 1.03541559E-01 7.39368359E-01
 9 13-1.22861302E-09-2.45342300E-02-1.75193742E-01 2.99451192E-10-8.48183251E-03
 9 14-6.05669700E-02 1.03762022E-10-7.10668847E-14-7.08205403E-14 1.41887425E-13
 9 15 1.06456069E-16-8.60718595E-06-6.14620921E-05-6.84952711E-15-7.21854379E-15
 9 16 1.40680709E-14-1.15160636E-17-5.74774138E-06-4.10434052E-05-1.03563899E-13
 9 17-1.03343451E-13 2.06907350E-13 2.11693912E-17-1.17034869E-05-8.35721180E-05
 9 18-7.35591979E-05-5.25270648E-04 3.04296158E-14-2.16692575E-13-2.16712352E-13
 9 19 4.33404927E-13-2.20851978E-17 3.23463493E-05 2.30978420E-04 3.66009818E-08
 9 20 2.61359836E-07-1.27234442E-15 1.16883672E-07 7.60991159E-16 1.63684567E-08
 9 21 9.46038009E-16-6.54738267E-08-4.67534688E-07-1.83404976E-18
10  1-2.88795649E-02 9.91405816E-02-2.14934809E-02-1.87414540E-02-3.56720679E-04
10  2-6.51273920E-04 5.39864587E-09 6.43878045E-08-7.38418857E-01-1.16412519E-09
10  3-1.35028113E-08 1.45819580E-01-4.17237883E-10-4.86334789E-09 5.33793499E-02
10  4 5.69560790E-05 5.69560790E-05-1.13912158E-04-1.74241455E-16 2.62057395E-13
10  5 3.40219396E-12-8.94786625E-06-8.94786625E-06 1.78957325E-05-1.01614454E-16
10  6 6.75004281E-13 8.75070443E-12 8.67114550E-05 8.67114550E-05-1.73422910E-04
10  7-5.57240829E-17-3.67959900E-13-6.19701536E-12-5.46141841E-12-5.87677421E-11
10  8-2.10942722E-06 2.04796865E-04 2.04796865E-04-4.09593730E-04-5.14650604E-18
10  9 1.83347638E-12 2.80506083E-11-9.09251281E-15-1.28028906E-13-9.93096555E-06
10 10-5.72470665E-14 6.66189422E-06-4.07252301E-15 6.66189422E-06 1.62714091E-14
10 11 2.29015869E-13 1.75564609E-17 2.89019124E-02-9.91407171E-02 2.18154335E-02
10 12 1.84178569E-02 4.04410767E-04 5.79889146E-04-3.28037613E-09-6.66452772E-08
10 13-7.38713966E-01 6.64094338E-10 1.41317578E-08 1.46873594E-01 2.34756272E-10
10 14 4.96170001E-09 5.23681790E-02-4.37879275E-05-4.37879275E-05 8.75758550E-05
10 15 2.35120981E-18 1.70856086E-13 4.01980125E-12 2.92385412E-05 2.92385411E-05
10 16-5.84770823E-05 1.32854011E-18 4.68015630E-13 8.03020046E-12-1.20276953E-04
10 17-1.20276953E-04 2.40553906E-04-8.04906680E-19-7.71443539E-13-9.70461825E-12
10 18 4.24525946E-13 1.88570064E-11-4.62552554E-04-1.67335321E-04-1.67335321E-04
10 19 3.34670642E-04-1.01250225E-19 2.53376893E-12 3.28871986E-11 6.82697671E-15
10 20 9.70823089E-14-2.65466248E-06 4.34164632E-14 1.78080173E-06 3.05274743E-15
10 21 1.78080173E-06-1.22120978E-14-1.73666048E-13 5.22196568E-18
11  1-1.54803754E-09 5.26166399E-09-1.13115054E-09-9.87958230E-10-1.86586791E-11
11  2-3.58954243E-11 5.52415493E-01-5.00002904E-01-4.04766855E-08-1.16056534E-01
11  3 1.05045215E-01 8.03916605E-09-4.17868225E-02 3.78221338E-02 2.93970050E-09
11  4 3.11976069E-12 3.11957451E-12-6.23933520E-12 4.53734006E-17 2.89788969E-05
11  5-2.62294102E-05-4.72983507E-13-4.73060934E-13 9.46044441E-13-1.14013402E-16
11  6 7.45622355E-05-6.74878505E-05 4.72196169E-12 4.72187307E-12-9.44383476E-12
11  7-2.69343245E-16-5.19045423E-05 4.69798942E-05-5.08031958E-04 4.59830436E-04
11  8 4.89100416E-13 1.12011877E-11 1.12010061E-11-2.24021938E-11 1.17653117E-16
11  9 2.36322942E-04-2.13900873E-04-1.08462957E-06 9.81721061E-07-5.45887276E-13
11 10 4.39039006E-07 3.66189310E-13-4.85061090E-07 3.66195324E-13 1.94024436E-06
11 11-1.75615602E-06 1.15861157E-16 1.53364462E-09-5.37189573E-09 1.16138017E-09
11 12 9.82921894E-10 2.13884735E-11 3.20374569E-11-5.52636050E-01 5.00202523E-01
11 13-4.03139287E-08 1.16842207E-01-1.05756341E-01 7.98096149E-09 4.10403331E-02
11 14-3.71464695E-02 2.84741520E-09-2.38816601E-12-2.38802345E-12 4.77618946E-12
11 15 2.31827717E-18 3.30823255E-05-2.99435091E-05 1.61542672E-12 1.61534107E-12
11 16-3.23076779E-12 8.40797264E-18 6.71630927E-05-6.07907295E-05-6.58885975E-12
11 17-6.58885125E-12 1.31777110E-11-3.73450974E-19-8.28999075E-05 7.50344531E-05
11 18 1.51743065E-04-1.37345840E-04-2.55909349E-11-9.15784794E-12-9.15785286E-12
11 19 1.83157008E-11-2.14239491E-18 2.80263938E-04-2.53672795E-04 8.21891280E-07
11 20-7.43911113E-07-1.45955561E-13-3.32687163E-07 9.80304604E-14 3.67560954E-07
11 21 9.77894733E-14-1.47024382E-06 1.33074865E-06 1.72491470E-17
12  1-2.02239494E-09 6.85434595E-09-1.53417483E-09-1.33042842E-09-2.57051138E-11
12  2-4.45959908E-11-5.00002894E-01-5.52415499E-01-5.12659595E-08 1.05045213E-01
12  3 1.16056536E-01 1.01692532E-08 3.78221329E-02 4.17868230E-02 3.71945437E-09
12  4 3.94296221E-12 3.94287928E-12-7.88584149E-12-1.03102417E-16-2.62294099E-05
12  5-2.89788971E-05-6.00206476E-13-6.00723474E-13 1.20092995E-12 1.95234154E-16
12  6-6.74878496E-05-7.45622360E-05 5.96325087E-12 5.96347433E-12-1.19267252E-11
12  7 3.84290142E-17 4.69798946E-05 5.19045420E-05 4.59830422E-04 5.08031966E-04
12  8 5.71037978E-13 1.41726975E-11 1.41722859E-11-2.83449834E-11-3.78252708E-16
12  9-2.13900873E-04-2.36322942E-04 9.81721055E-07 1.08462957E-06-6.88654949E-13
12 10 4.85061090E-07 4.61961305E-13 4.39039003E-07 4.61966263E-13-1.75615601E-06
12 11-1.94024436E-06 5.88577773E-17 2.01322410E-09-6.83105169E-09 1.50803358E-09
12 12 1.27247436E-09 2.79685872E-11 4.01532280E-11 5.00202533E-01 5.52636044E-01
12 13-5.07838137E-08-1.05756344E-01-1.16842206E-01 1.00520820E-08-3.71464703E-02
12 14-4.10403326E-02 3.58658317E-09-3.01388605E-12-3.01357227E-12 6.02745832E-12
12 15 1.55633553E-16-2.99435100E-05-3.30823250E-05 2.06302885E-12 2.06271751E-12
12 16-4.12574636E-12-7.35773572E-17-6.07907301E-05-6.71630923E-05-8.36211707E-12
12 17-8.36198443E-12 1.67241015E-11 4.50016420E-17 7.50344520E-05 8.28999082E-05
12 18-1.37345848E-04-1.51743060E-04-3.25059201E-11-1.15945429E-11-1.15945340E-11
12 19 2.31890769E-11-3.63903343E-17-2.53672792E-04-2.80263939E-04-7.43911113E-07
12 20-8.21891286E-07-1.86252504E-13-3.67560957E-07 1.24951663E-13-3.32687163E-07
12 21 1.24932293E-13 1.33074865E-06 1.47024383E-06 3.08177747E-17
13  1-6.41912704E-03 2.19474380E-02-4.92625049E-03-3.66703356E-03-4.20203152E-04
13  2-2.43045051E-04 2.21573109E-12-4.39681493E-11-1.05317453E-01-2.67773274E-12
13  3 3.61820021E-11-5.47175286E-01-8.33662027E-13 1.14006578E-11-1.62472561E-01
13  4-4.98059975E-05-4.98059975E-05 9.96119950E-05-1.95766076E-16 2.11440332E-15
13  5-7.86678526E-15-1.07250050E-04-1.07250049E-04 2.14500099E-04-1.54387401E-16
13  6 3.81181986E-15-1.52494869E-14 1.15538469E-04 1.15538469E-04-2.31076938E-04
13  7-4.73390851E-17-4.85494303E-15 7.12698965E-16-1.99951460E-14 3.33616410E-13
13  8-6.13566343E-03-9.71755055E-06-9.71755055E-06 1.94351011E-05-1.21979767E-17
13  9 1.83704970E-14-1.51818087E-14-3.85309800E-17 8.55353682E-17 1.91091238E-05
13 10 2.61190950E-17-1.28187899E-05-5.16515700E-17-1.28187899E-05 1.03346304E-16
13 11-1.40876834E-16 1.73454355E-16-6.42887508E-03 2.19874510E-02-4.99012018E-03
13 12-3.83888515E-03 9.08765797E-05-3.59701623E-04-4.66143750E-11 4.01533846E-12
13 13 1.05894292E-01 3.53167853E-11 3.64618220E-12 5.44858257E-01 1.12789554E-11
13 14 1.07674604E-12 1.66180515E-01-9.03157675E-05-9.03157675E-05 1.80631535E-04
13 15 3.80352657E-18 1.17648451E-14 1.54802096E-15-1.49518886E-04-1.49518886E-04
13 16 2.99037772E-04-1.29283186E-19 1.24708778E-14-1.75379553E-15 9.80589945E-05
13 17 9.80589945E-05-1.96117989E-04-5.57528395E-18-1.75783024E-15 1.05122006E-14
13 18 1.63155383E-13 3.44476101E-14 3.58674833E-03 7.87954210E-05 7.87954210E-05
13 19-1.57590842E-04 1.47720311E-18 8.87590694E-15-3.19800523E-14 6.57971832E-17
13 20-4.63302722E-17 7.22380131E-06-2.34951393E-17-4.84587324E-06 3.31446028E-17
13 21-4.84587324E-06-1.21420787E-16 8.56537222E-17 1.60096107E-17
14  1 7.88241055E-12-1.01910773E-12-1.17673562E-12-7.89014966E-13-1.79870500E-14
14  2 4.37154861E-14-2.27780043E-02-8.71235613E-03 2.09127809E-12 5.47976575E-01
14  3 2.09595499E-01 8.25727480E-13 1.64524157E-01 6.29288267E-02 2.13316429E-13
14  4-4.59366081E-15-4.54224030E-15 9.13590111E-15 2.52996625E-17-9.36395633E-05
14  5-3.58161862E-05 3.66341591E-15 3.24918562E-15-6.91260153E-15 2.35586076E-16
14  6-1.84934672E-04-7.07356422E-05-9.00521194E-15-8.71107746E-15 1.77162894E-14
14  7 1.35412841E-16-4.71618315E-05-1.80389237E-05 5.90697184E-03 2.25935700E-03
14  8 3.39199224E-14-4.54525342E-15-4.55640294E-15 9.10165636E-15-4.58018467E-16
14  9 1.57619161E-05 6.02877356E-06 5.01275755E-08 1.91733377E-08 1.58206464E-16
14 10 8.57457706E-09-1.60556200E-17 2.24177332E-08-1.96200625E-16-8.96709330E-08
14 11-3.42983090E-08-2.95084684E-17-5.47543050E-13 3.71218790E-12 5.02024962E-13
14 12 2.28819944E-13 1.40171562E-14-2.00180184E-14-2.23141146E-02-8.53492302E-03
14 13-2.00258116E-12 5.46053048E-01 2.08859770E-01-2.95215792E-11 1.67891991E-01
14 14 6.42169891E-02-9.05429410E-12 5.96330678E-15 5.93028542E-15-1.18935922E-14
14 15-2.63906763E-16 1.89591793E-04 7.25169437E-05 7.21648587E-15 7.29317223E-15
14 16-1.45096581E-14-3.07130201E-17 1.52573454E-04 5.83578037E-05-1.65870587E-15
14 17-1.64876045E-15 3.30746632E-15-1.03135842E-17 9.61154197E-05 3.67631762E-05
14 18 3.16969266E-03 1.21237539E-03-1.60872043E-13 1.82962009E-15 1.63792784E-15
14 19-3.46754793E-15 4.07990523E-17-2.49465264E-04-9.54179409E-05 6.82790434E-07
14 20 2.61160437E-07-6.38275323E-16 1.16794498E-07 5.19127965E-16 3.05353165E-07
14 21 3.37208242E-16-1.22141266E-06-4.67177992E-07-7.52135242E-17
15  1-1.67803702E-12 1.22792104E-12 4.50926350E-12 3.17529227E-12 9.57758158E-14
15  2-6.82888798E-14-8.71235617E-03 2.27780043E-02-1.90965629E-11 2.09595499E-01
15  3-5.47976574E-01 1.41404357E-11 6.29288267E-02-1.64524157E-01 4.49658625E-12
15  4 1.56177289E-15 2.12700084E-15-3.68877373E-15-6.61602019E-16-3.58161862E-05
15  5 9.36395631E-05 9.41435307E-15 9.72097023E-15-1.91353233E-14 4.05572762E-16
15  6-7.07356422E-05 1.84934672E-04-3.94697835E-15-2.91162959E-15 6.85860794E-15
15  7 7.31182684E-19-1.80389237E-05 4.71618315E-05 2.25935700E-03-5.90697183E-03
15  8 1.05137325E-13 1.35078433E-14 1.30529599E-14-2.65608032E-14 5.93819026E-17
15  9 6.02877357E-06-1.57619166E-05 1.91733377E-08-5.01275738E-08-4.75926321E-16
15 10-2.24177325E-08 2.68052926E-16 8.57457728E-09 3.70469238E-16-3.42983091E-08
15 11 8.96709300E-08 6.91158625E-17-9.50822017E-13-3.93521366E-12 2.21865326E-12
15 12 1.67886890E-12 6.96553577E-14-4.40749636E-15-8.53492305E-03 2.23141148E-02
15 13 3.07916938E-12 2.08859770E-01-5.46053049E-01 2.65620978E-11 6.42169891E-02
15 14-1.67891992E-01 8.14007795E-12-5.36515911E-15-4.77786959E-15 1.01430287E-14
15 15 2.06853865E-16 7.25169437E-05-1.89591793E-04 1.37410310E-15 8.86647704E-16
15 16-2.26075080E-15 8.18846004E-18 5.83578037E-05-1.52573455E-04-8.29145296E-15
15 17-8.11605594E-15 1.64075089E-14 1.86985399E-17 3.67631762E-05-9.61154195E-05
15 18 1.21237539E-03-3.16969267E-03 1.39031212E-13-3.61430466E-15-3.59114903E-15
15 19 7.20545369E-15-4.57936084E-17-9.54179409E-05 2.49465263E-04 2.61160437E-07
15 20-6.82790434E-07-1.66674574E-18-3.05353165E-07 1.82182539E-16 1.16794498E-07
15 21-1.79946365E-16-4.67177992E-07 1.22141266E-06 6.47533680E-17