 $CONTRL SCFTYP=GVB RUNTYP=ENERGY ICHARG=0 MULT=1 NOSYM=1 ICUT=11
  MAXIT=500 ISPHER=1 $END
 $SYSTEM MWORDS=52 $END
 $SCF NCO=18 NPAIR=6 DIRSCF=.TRUE. $END
 $GUESS GUESS=MOREAD NORB=90 $END
 $DATA
GAMESS inp file produced by MOKIT,nif=90,nbf=90
C1   1
Cr   24.         0.00000000         0.00000000         0.00000000
   S  8
   1   2.54477807E+05   2.42904776E-04   0.00000000E+00
   2   3.81317971E+04   1.88435236E-03   0.00000000E+00
   3   8.67529306E+03   9.80095844E-03   0.00000000E+00
   4   2.45500998E+03   3.98250087E-02   0.00000000E+00
   5   7.99162178E+02   1.29405437E-01   0.00000000E+00
   6   2.86900215E+02   3.06290018E-01   0.00000000E+00
   7   1.11254132E+02   4.34628350E-01   0.00000000E+00
   8   4.38641526E+01   2.24695629E-01   0.00000000E+00
   S  4
   1   2.79326692E+02  -2.43633579E-02   0.00000000E+00
   2   8.62747324E+01  -1.15114954E-01   0.00000000E+00
   3   1.35557561E+01   5.50922663E-01   0.00000000E+00
   4   5.69781128E+00   5.36113547E-01   0.00000000E+00
   S  2
   1   8.56365826E+00  -3.71230177E-01   0.00000000E+00
   2   1.39882968E+00   1.16811695E+00   0.00000000E+00
   S  1
   1   5.72881711E-01   1.00000000E+00   0.00000000E+00
   S  1
   1   9.00961713E-02   1.00000000E+00   0.00000000E+00
   S  1
   1   3.41258851E-02   1.00000000E+00   0.00000000E+00
   P  6
   1   1.30643989E+03   2.82928007E-03   0.00000000E+00
   2   3.09253114E+02   2.27766292E-02   0.00000000E+00
   3   9.89962740E+01   1.05645619E-01   0.00000000E+00
   4   3.67569165E+01   2.99499449E-01   0.00000000E+00
   5   1.45666571E+01   4.77062454E-01   0.00000000E+00
   6   5.87399374E+00   2.76542344E-01   0.00000000E+00
   P  3
   1   2.28909997E+01  -1.94121061E-02   0.00000000E+00
   2   3.08550018E+00   3.86188758E-01   0.00000000E+00
   3   1.21323291E+00   6.76239089E-01   0.00000000E+00
   P  1
   1   4.49316807E-01   1.00000000E+00   0.00000000E+00
   D  4
   1   4.37200745E+01   2.20932593E-02   0.00000000E+00
   2   1.23912427E+01   1.28014388E-01   0.00000000E+00
   3   4.26394420E+00   3.86529103E-01   0.00000000E+00
   4   1.55252218E+00   6.41033014E-01   0.00000000E+00
   D  1
   1   5.37619295E-01   1.00000000E+00   0.00000000E+00
   D  1
   1   1.64931731E-01   1.00000000E+00   0.00000000E+00
   P  1
   1   1.20675000E-01   1.00000000E+00   0.00000000E+00
   D  1
   1   5.10000000E-02   1.00000000E+00   0.00000000E+00
   F  1
   1   1.14700000E+00   1.00000000E+00   0.00000000E+00

Cr   24.         0.00000000         0.00000000         3.00000001
   S  8
   1   2.54477807E+05   2.42904776E-04   0.00000000E+00
   2   3.81317971E+04   1.88435236E-03   0.00000000E+00
   3   8.67529306E+03   9.80095844E-03   0.00000000E+00
   4   2.45500998E+03   3.98250087E-02   0.00000000E+00
   5   7.99162178E+02   1.29405437E-01   0.00000000E+00
   6   2.86900215E+02   3.06290018E-01   0.00000000E+00
   7   1.11254132E+02   4.34628350E-01   0.00000000E+00
   8   4.38641526E+01   2.24695629E-01   0.00000000E+00
   S  4
   1   2.79326692E+02  -2.43633579E-02   0.00000000E+00
   2   8.62747324E+01  -1.15114954E-01   0.00000000E+00
   3   1.35557561E+01   5.50922663E-01   0.00000000E+00
   4   5.69781128E+00   5.36113547E-01   0.00000000E+00
   S  2
   1   8.56365826E+00  -3.71230177E-01   0.00000000E+00
   2   1.39882968E+00   1.16811695E+00   0.00000000E+00
   S  1
   1   5.72881711E-01   1.00000000E+00   0.00000000E+00
   S  1
   1   9.00961713E-02   1.00000000E+00   0.00000000E+00
   S  1
   1   3.41258851E-02   1.00000000E+00   0.00000000E+00
   P  6
   1   1.30643989E+03   2.82928007E-03   0.00000000E+00
   2   3.09253114E+02   2.27766292E-02   0.00000000E+00
   3   9.89962740E+01   1.05645619E-01   0.00000000E+00
   4   3.67569165E+01   2.99499449E-01   0.00000000E+00
   5   1.45666571E+01   4.77062454E-01   0.00000000E+00
   6   5.87399374E+00   2.76542344E-01   0.00000000E+00
   P  3
   1   2.28909997E+01  -1.94121061E-02   0.00000000E+00
   2   3.08550018E+00   3.86188758E-01   0.00000000E+00
   3   1.21323291E+00   6.76239089E-01   0.00000000E+00
   P  1
   1   4.49316807E-01   1.00000000E+00   0.00000000E+00
   D  4
   1   4.37200745E+01   2.20932593E-02   0.00000000E+00
   2   1.23912427E+01   1.28014388E-01   0.00000000E+00
   3   4.26394420E+00   3.86529103E-01   0.00000000E+00
   4   1.55252218E+00   6.41033014E-01   0.00000000E+00
   D  1
   1   5.37619295E-01   1.00000000E+00   0.00000000E+00
   D  1
   1   1.64931731E-01   1.00000000E+00   0.00000000E+00
   P  1
   1   1.20675000E-01   1.00000000E+00   0.00000000E+00
   D  1
   1   5.10000000E-02   1.00000000E+00   0.00000000E+00
   F  1
   1   1.14700000E+00   1.00000000E+00   0.00000000E+00

 $END
 $VEC
 1  1 9.98273062E-01 5.40485475E-03-2.09414906E-03 1.73908324E-03-5.93334191E-04
 1  2 2.12575028E-04-4.53829109E-12-6.96882272E-12 2.76819606E-05 2.70000740E-12
 1  3 8.28157275E-12-2.62688183E-05 8.69417297E-13 2.56280267E-12 4.96934666E-05
 1  4 3.69062972E-06 3.69062972E-06-7.38125944E-06 8.20478894E-18-2.42547114E-15
 1  5-1.51508118E-15-1.55988887E-05-1.55988888E-05 3.11977775E-05 5.58205366E-18
 1  6-3.13787537E-15-5.79084945E-15 5.31481030E-05 5.31481030E-05-1.06296206E-04
 1  7 3.10632254E-18-2.01940019E-15 5.09215456E-15 1.45733079E-14 9.25295540E-14
 1  8-1.63537690E-04-1.86589005E-06-1.86589006E-06 3.73178011E-06 2.98641159E-19
 1  9-8.72556317E-15 8.94278294E-15 8.83424238E-17-7.92594731E-16-4.38942715E-06
 1 10-3.54487340E-16 2.94451725E-06 3.94562652E-17 2.94451725E-06-1.57980064E-16
 1 11 1.41786476E-15 1.39458561E-20 6.40929113E-04 1.95613481E-05-1.00545396E-05
 1 12-1.18045450E-04 1.36994299E-04-9.89574281E-06 2.21009070E-11-4.42981827E-11
 1 13-4.84320804E-05-3.15063300E-12 1.10894907E-11 1.31711700E-05-1.17297619E-12
 1 14 3.80845404E-12 6.42435293E-05-9.75136375E-07-9.75136375E-07 1.95027275E-06
 1 15 1.34065747E-20-2.23436156E-15 7.11761404E-15 7.43100875E-06 7.43100875E-06
 1 16-1.48620175E-05 8.87482148E-21-3.18484443E-15 1.05191285E-14-4.71343645E-05
 1 17-4.71343645E-05 9.42687290E-05 1.21367483E-20-7.16472708E-16-2.82277352E-15
 1 18 5.48316205E-15 3.20821596E-14-1.88003800E-04-1.84988903E-05-1.84988903E-05
 1 19 3.69977806E-05 8.04782807E-21-7.66073956E-15 2.11675114E-16 1.50509281E-16
 1 20-1.00397267E-15-6.22005542E-06-4.48991433E-16 4.17254002E-06 6.73101717E-17
 1 21 4.17254002E-06-2.69239562E-16 1.79596211E-15-2.06761278E-21
 2  1 6.39953560E-04-1.26267921E-05 7.36554822E-06 1.20285796E-04-1.37782197E-04
 2  2 1.02104767E-05 3.73562468E-11 1.19126524E-11-4.83984161E-05-1.51643363E-11
 2  3 1.48468838E-12 1.31397591E-05-5.01700464E-12 2.93248425E-13 6.42999152E-05
 2  4 9.80812630E-07 9.80812630E-07-1.96162526E-06 9.60244391E-18 7.66782513E-15
 2  5-8.18722144E-16-7.45650905E-06-7.45650905E-06 1.49130181E-05 6.41273349E-18
 2  6 1.35753921E-14-1.30175343E-15 4.72086441E-05 4.72086441E-05-9.44172882E-05
 2  7 3.63597543E-18 1.04861812E-15 3.97338017E-16-1.04434962E-13 3.30749432E-14
 2  8-1.88194578E-04 1.84966138E-05 1.84966139E-05-3.69932277E-05 3.30405325E-19
 2  9 1.45733066E-14 2.23119246E-15 5.76618075E-16-7.38987845E-17-6.24400776E-06
 2 10-3.30513282E-17 4.18860774E-06 2.57868591E-16 4.18860774E-06-1.03148292E-15
 2 11 1.32196952E-16-1.00958358E-20-9.98273061E-01-5.40482890E-03 2.09416026E-03
 2 12-1.73928498E-03 5.93611729E-04-2.12690095E-04 2.79449696E-12-2.06491729E-13
 2 13 2.76216213E-05-2.14198854E-12 9.86973105E-14-2.62532575E-05-6.71676603E-13
 2 14 3.39451934E-14 4.97766223E-05-3.71449052E-06-3.71449052E-06 7.42898104E-06
 2 15-2.56606197E-19-8.77227915E-16-7.50463624E-17 1.56244366E-05 1.56244366E-05
 2 16-3.12488732E-05 1.72487616E-19-1.41937997E-15 3.06940564E-16-5.31933270E-05
 2 17-5.31933270E-05 1.06386654E-04-6.12313558E-20 4.30694750E-15-3.98302832E-16
 2 18-3.42722961E-14-2.82217050E-15-1.63776854E-04 1.82973484E-06 1.82973485E-06
 2 19-3.65946969E-06 3.85830507E-20 2.54461539E-14 4.00587855E-15 6.79166679E-16
 2 20 4.26181805E-17-4.45206681E-06 1.90620286E-17 2.98653721E-06 3.03731759E-16
 2 21 2.98653721E-06-1.21492948E-15-7.62403177E-17-3.17212660E-21
 3  1-3.94853594E-02 1.81545328E-01-4.46310698E-01-3.24369025E-01-1.20648106E-02
 3  2 3.82735448E-03 3.88417036E-12 4.54398427E-11-7.27277653E-03-1.02123884E-11
 3  3 1.53304610E-12-7.97803712E-03-3.11067944E-12-1.14827222E-13-1.35067518E-03
 3  4 5.59381100E-05 5.59381100E-05-1.11876220E-04-7.63374497E-17 5.79395769E-15
 3  5-2.65385183E-15-4.14137468E-05-4.14137468E-05 8.28274936E-05-4.41709556E-17
 3  6 9.75807254E-15-2.09860936E-15 4.09184041E-04 4.09184041E-04-8.18368082E-04
 3  7-2.70211159E-17 9.45025133E-16-1.96789915E-15-9.57802986E-14 7.37168459E-14
 3  8-2.18726674E-03 2.78644398E-04 2.78644398E-04-5.57288796E-04-2.22464989E-18
 3  9 1.06693920E-14 2.68865256E-15 2.37214759E-16 1.22336795E-16-1.61975853E-05
 3 10 6.46248253E-17 1.08656705E-05 1.16047396E-16 1.08656705E-05-4.34304392E-16
 3 11-2.28756860E-16 6.55277049E-18 3.94865754E-02-1.81537097E-01 4.46343960E-01
 3 12 3.24284152E-01 1.23087650E-02-3.98974065E-03-2.00848561E-11 2.12174606E-11
 3 13-7.27362242E-03 4.28859682E-13-6.80141703E-12-7.97190764E-03 3.21645643E-13
 3 14-2.27467386E-12-1.37623955E-03-3.19465518E-05-3.19465518E-05 6.38931036E-05
 3 15-3.63566804E-17 8.03294994E-16-4.89410396E-15 2.51100012E-05 2.51100011E-05
 3 16-5.02200023E-05-4.86761324E-18 5.71459925E-16-5.67242717E-15-4.24846499E-04
 3 17-4.24846498E-04 8.49692997E-04-5.78337449E-19 3.08077493E-15 1.17184463E-16
 3 18-2.44625181E-14-3.49943912E-14-2.14630356E-03-2.35058302E-04-2.35058302E-04
 3 19 4.70116604E-04-8.84734898E-19 1.16786655E-14 1.32832436E-14 1.62282881E-16
 3 20 7.29662600E-16-4.88327034E-05 3.38173145E-16 3.27579733E-05 7.24061143E-17
 3 21 3.27579733E-05-2.90131446E-16-1.31711825E-15-3.43312203E-19
 4  1 3.00781790E-02-1.49411970E-01 4.42762545E-01 3.21758730E-01 1.01284878E-02
 4  2-3.33421991E-03-5.50607793E-11-1.10256639E-10 3.57571719E-02 1.84474031E-11
 4  3 1.50703644E-11 6.16180453E-03 6.23962826E-12 5.90924905E-12 9.79489785E-04
 4  4-8.16217445E-05-8.16217445E-05 1.63243489E-04-5.55211376E-17-1.56729582E-14
 4  5-4.30573480E-15 6.77271410E-05 6.77271410E-05-1.35454282E-04-2.85653324E-17
 4  6-2.02430132E-14-1.21082963E-14-1.17712830E-04-1.17712830E-04 2.35425660E-04
 4  7-1.04210607E-17-1.40095158E-14 2.79035541E-15 7.71601716E-14 1.30884289E-14
 4  8-2.71634016E-04 2.59987398E-04 2.59987399E-04-5.19974797E-04-2.46452814E-18
 4  9-5.05796288E-14-1.77324368E-14 4.09152970E-16-9.68557457E-16-1.72928292E-06
 4 10-4.33975319E-16 1.16003825E-06 1.81235845E-16 1.16003825E-06-7.30172158E-16
 4 11 1.73343151E-15-1.02412254E-17 3.00808919E-02-1.49389092E-01 4.42844512E-01
 4 12 3.21516118E-01 1.06705417E-02-3.42119066E-03 8.92517733E-11-4.35959604E-11
 4 13-3.57548019E-02-2.13322976E-11 1.47910652E-11-6.18428697E-03-7.38588294E-12
 4 14 4.91648648E-12-8.42530638E-04-5.63740015E-05-5.63740015E-05 1.12748003E-04
 4 15-3.58640719E-17-1.50676365E-14 9.90791844E-15 1.00936260E-04 1.00936260E-04
 4 16-2.01872520E-04-5.42432899E-18-2.13076994E-14 1.20905836E-14-3.16268262E-04
 4 17-3.16268261E-04 6.32536523E-04-9.98913782E-19-3.89636590E-15-5.15691139E-15
 4 18-8.22125555E-15 9.60053565E-14-2.53502192E-04 2.37044615E-04 2.37044615E-04
 4 19-4.74089230E-04 1.19572216E-18-5.40095794E-14-4.70517561E-14 8.32000964E-16
 4 20-2.09677251E-15-2.80850269E-05-9.25299399E-16 1.88400088E-05 3.72457031E-16
 4 21 1.88400088E-05-1.48870346E-15 3.73841492E-15-2.63316396E-19
 5  1-1.02644123E-01 3.46243016E-01-1.76358413E-02-2.52223175E-02 1.76882693E-03
 5  2-5.74914226E-04 8.62325727E-11 2.99672875E-10-6.31778408E-01-1.57773256E-11
 5  3-6.60315178E-11 3.30373367E-01-5.81576834E-12-2.35992807E-11 1.07523363E-01
 5  4 1.51653133E-04 1.51653133E-04-3.03306266E-04-4.72764341E-17 5.27995298E-15
 5  5 3.76994639E-14-1.21872611E-04-1.21872611E-04 2.43745222E-04 1.23489011E-17
 5  6 1.27220195E-14 6.24259399E-14-1.16702794E-04-1.16702793E-04 2.33405587E-04
 5  7 2.89035392E-17-2.21871775E-15 1.74487535E-14-5.45212030E-14-2.26293430E-13
 5  8 2.77641991E-03 2.32945196E-04 2.32945197E-04-4.65890393E-04 7.20299606E-19
 5  9 1.25193515E-14 1.20147872E-13 9.87706105E-16 1.55819409E-15 8.18765493E-05
 5 10 7.27845053E-16-5.49244590E-05 4.60416681E-16-5.49244590E-05-1.78556348E-15
 5 11-2.81838180E-15-9.91218704E-18-1.02680082E-01 3.46190874E-01-1.82541037E-02
 5 12-2.42871301E-02 9.45791384E-04-6.88385631E-06 4.70376785E-11-6.66887733E-11
 5 13 6.31836324E-01-1.19124967E-11 5.41026519E-12-3.30558024E-01-4.06957788E-12
 5 14 2.35198377E-12-1.07492183E-01 1.29698476E-04 1.29698476E-04-2.59396952E-04
 5 15 8.10128762E-18-7.60880110E-15 5.45980480E-15 1.29366604E-05 1.29366603E-05
 5 16-2.58733207E-05 1.67325544E-18-9.99500877E-15 1.04328426E-14-1.84764041E-04
 5 17-1.84764041E-04 3.69528082E-04-1.11460373E-18 4.95011842E-15 1.83972181E-14
 5 18-6.83322681E-14-1.85263496E-13-2.27021316E-03 1.46663744E-04 1.46663744E-04
 5 19-2.93327488E-04 1.76425073E-19 3.77510809E-14 1.82970628E-13 1.72897689E-15
 5 20 2.76746930E-15-1.47527547E-04 1.23931614E-15 9.89644871E-05 7.70037183E-16
 5 21 9.89644871E-05-3.08970310E-15-4.95226583E-15 3.14557876E-18
 6  1-2.27117434E-01 7.67185091E-01-5.36243461E-02-6.48253607E-02 9.12368512E-04
 6  2 1.45238591E-04 1.14292583E-11 1.73838463E-11 1.17280738E-01 5.95109596E-12
 6  3 1.65706776E-11-3.95041033E-02 1.64328370E-12 4.72050268E-12-1.35959064E-02
 6  4-3.75013804E-05-3.75013803E-05 7.50027607E-05 6.35005097E-18-5.72636993E-15
 6  5 6.85157743E-16 5.25947755E-05 5.25947755E-05-1.05189551E-04 4.31869712E-18
 6  6-6.76486678E-15-9.21453219E-15-3.17649387E-04-3.17649387E-04 6.35298774E-04
 6  7 3.80533633E-19-4.67490408E-15 1.84809896E-14 6.41141812E-14 2.53747922E-13
 6  8 8.67661382E-04-3.49085799E-05-3.49085799E-05 6.98171598E-05 2.50881052E-19
 6  9-1.27227695E-14 4.51767782E-14 1.84757603E-16-2.28409762E-15 3.51941783E-05
 6 10-1.01820892E-15-2.36089725E-05 8.75961762E-17-2.36089725E-05-3.35474511E-16
 6 11 4.08264745E-15-2.03460103E-19 2.27257261E-01-7.67124857E-01 5.57573424E-02
 6 12 6.23556389E-02-3.16508343E-04-2.09669704E-04 3.96407908E-11-1.51493928E-10
 6 13 1.17310273E-01-9.13773750E-12 3.58480737E-11-3.96088409E-02-3.16987490E-12
 6 14 1.23985293E-11-1.35051326E-02 2.79822571E-05 2.79822572E-05-5.59645143E-05
 6 15-9.54829422E-18-6.53357212E-15 2.33226642E-14-4.04415278E-05-4.04415278E-05
 6 16 8.08830556E-05 1.98540146E-18-8.54733876E-15 3.47198866E-14 3.01569598E-04
 6 17 3.01569598E-04-6.03139196E-04-1.08271580E-18-1.13894392E-15-6.21525274E-15
 6 18-1.63034650E-14 7.44176974E-14 9.70369717E-04 4.81610371E-05 4.81610372E-05
 6 19-9.63220743E-05 2.09397589E-19-7.24584831E-15 2.57744760E-14 6.25006433E-16
 6 20-2.80129600E-15 2.30073903E-05-1.25219061E-15-1.54338266E-05 2.78569674E-16
 6 21-1.54338266E-05-1.11710380E-15 5.01052357E-15 2.77444875E-19
 7  1-2.06733833E-01 7.00845145E-01-7.29762111E-02-7.56981874E-02-8.39194394E-04
 7  2 4.94068524E-04 1.22761603E-11 2.80849899E-11 3.35395131E-01-2.12481584E-11
 7  3-4.24966450E-12-1.24338687E-01-6.50193982E-12-1.64920443E-12-4.17021193E-02
 7  4-5.76444885E-05-5.76444885E-05 1.15288977E-04 2.68275265E-17 2.51129737E-15
 7  5 1.02996853E-14 7.83535710E-05 7.83535710E-05-1.56707142E-04 2.71744737E-18
 7  6 1.42460200E-14 8.71991270E-15-2.32632334E-05-2.32632333E-05 4.65264667E-05
 7  7-9.57687758E-18-1.61860681E-14 1.66408293E-14-2.51961543E-13 4.48575962E-14
 7  8-6.67827867E-04-1.06247049E-04-1.06247050E-04 2.12494099E-04 6.04544910E-19
 7  9-2.89387608E-14 5.04512749E-14 2.24778525E-15-1.26504682E-15-3.38238809E-05
 7 10-5.77000857E-16 2.26897491E-05 9.99689260E-16 2.26897491E-05-4.01540963E-15
 7 11 2.27423926E-15 5.53783434E-18-2.06875240E-01 7.00778596E-01-7.51427438E-02
 7 12-7.31269874E-02-1.71087177E-03 2.46968850E-04 1.24670157E-10-1.31605024E-10
 7 13-3.35491973E-01-3.42310164E-11 2.94410249E-11 1.24701583E-01-1.16468544E-11
 7 14 1.02567976E-11 4.12253202E-02-5.29189330E-05-5.29189330E-05 1.05837866E-04
 7 15 9.52455665E-18-2.22125004E-14 1.99404341E-14-3.14184779E-06-3.14184779E-06
 7 16 6.28369558E-06-2.09140518E-18-3.24414836E-14 2.87790910E-14 1.71989623E-04
 7 17 1.71989622E-04-3.43979245E-04 1.92604702E-18 7.74159859E-15-1.93890984E-16
 7 18-1.03400556E-13 3.66033455E-14 1.12700787E-03-4.27935119E-05-4.27935118E-05
 7 19 8.55870237E-05-8.29700313E-19-5.93107445E-15 4.05690617E-14 2.95546270E-15
 7 20-1.86904008E-15 7.45052262E-05-8.37898731E-16-4.99796251E-05 1.32349922E-15
 7 21-4.99796251E-05-5.28866852E-15 3.34547914E-15-1.13451029E-18
 8  1-3.59271354E-02 1.20844288E-01-4.51421221E-03-6.79290251E-03-2.10098620E-03
 8  2-1.18707765E-03 8.82057206E-10 6.18819902E-10-7.34354774E-01-2.42697683E-10
 8  3-1.13901810E-10 2.44171144E-01-8.38614408E-11-4.19131050E-11 8.31744256E-02
 8  4 2.09181448E-04 2.09181448E-04-4.18362896E-04-6.34984850E-18 9.98685499E-14
 8  5 2.58275700E-14 3.69012956E-05 3.69012956E-05-7.38025912E-05 2.32214164E-17
 8  6 2.06382019E-13 8.53799023E-14 6.12080575E-04 6.12080575E-04-1.22416115E-03
 8  7 1.59847647E-17-1.83925049E-14-4.16476193E-14-1.37461857E-12-4.65820064E-13
 8  8-1.36357960E-03 2.48257526E-04 2.48257526E-04-4.96515052E-04 1.67789727E-18
 8  9 1.99857443E-13 3.59606014E-14 1.26058083E-14 9.22798333E-15-7.89979584E-05
 8 10 4.11898607E-15 5.29934415E-05 5.62413419E-15 5.29934415E-05-2.25366008E-14
 8 11-1.64996249E-14 4.84786400E-18 3.59509228E-02-1.20842106E-01 4.86209453E-03
 8 12 6.43556099E-03 2.26157746E-03 9.82743830E-04 3.37480248E-10 4.91092085E-10
 8 13-7.34559728E-01-1.23253688E-10-1.35460085E-10 2.44875472E-01-4.07010619E-11
 8 14-4.59552627E-11 8.26406056E-02-1.23254907E-04-1.23254908E-04 2.46509815E-04
 8 15-4.57769234E-18-7.60327404E-14-8.93519376E-14-1.10913216E-04-1.10913215E-04
 8 16 2.21826431E-04-1.45794876E-18-1.02014029E-13-1.18694354E-13-5.74987470E-04
 8 17-5.74987470E-04 1.14997494E-03-9.74533952E-19 7.49294581E-14 3.90999461E-14
 8 18-8.95680847E-13-6.38245230E-13-1.92488192E-03-1.57874745E-04-1.57874744E-04
 8 19 3.15749489E-04 4.47000231E-19 4.62934419E-13 2.37252623E-13 1.91579065E-14
 8 20 1.59568531E-14-1.39532517E-05 7.13648369E-15 9.36012579E-06 8.56963997E-15
 8 21 9.36012579E-06-3.42726687E-14-2.85448486E-14-2.10396545E-18
 9  1-6.31293616E-11 2.19246594E-10-1.64424569E-11-1.87769113E-11-2.08295236E-12
 9  2-1.21129410E-12-7.17670155E-01-2.05226613E-01-7.77688982E-10 2.02040544E-01
 9  3 5.77759796E-02 3.03054368E-10 6.95370578E-02 1.98849774E-02 1.01440392E-10
 9  4 2.41064940E-13 2.41046821E-13-4.82111761E-13-1.10120674E-16-5.59326310E-05
 9  5-1.59946247E-05 3.05557582E-14 3.00226964E-14-6.05784546E-14-5.79835944E-17
 9  6-1.55698482E-04-4.45238972E-05 6.07961411E-13 6.07917259E-13-1.21587867E-12
 9  7-2.97657709E-16 6.83428413E-05 1.95434752E-05 1.32855501E-03 3.79916647E-04
 9  8-8.40927711E-13 2.76907131E-13 2.76956783E-13-5.53863914E-13-4.23676309E-17
 9  9-2.28343410E-05-6.52976423E-06-1.51775483E-05-4.34020660E-06-7.09719965E-14
 9 10-1.94099940E-06 4.74194321E-14-6.78760595E-06 4.77994931E-14 2.71504238E-05
 9 11 7.76399760E-06-6.11167579E-17-1.80287020E-11-3.31861214E-11-4.17394698E-12
 9 12-2.78409236E-12 2.31925975E-12 1.01684959E-12-7.17921432E-01-2.05298458E-01
 9 13-6.70135605E-10 2.02933399E-01 5.80313003E-02 2.16194970E-10 6.87100805E-02
 9 14 1.96484922E-02 7.32203547E-11-1.14096516E-13-1.14166489E-13 2.28263005E-13
 9 15-1.33750161E-18 1.31010006E-04 3.74639218E-05-1.13259604E-13-1.13068107E-13
 9 16 2.26327711E-13 3.05600865E-17 1.81480628E-04 5.18966165E-05-6.10155148E-13
 9 17-6.10210602E-13 1.22036575E-12 1.61222470E-17-6.71603425E-05-1.92053263E-05
 9 18 9.19796144E-04 2.63027022E-04-2.19213182E-12-1.45681161E-13-1.45729729E-13
 9 19 2.91410890E-13 7.04435023E-18-2.92144500E-04-8.35423171E-05-2.31286748E-05
 9 20-6.61392898E-06-3.04199334E-14-2.95783896E-06 2.06410620E-14-1.03434578E-05
 9 21 2.01715614E-14 4.13738313E-05 1.18313558E-05-8.55730308E-20
10  1-3.01795662E-11-1.39380873E-11-6.00375928E-11-4.24345911E-11-2.45563078E-12
10  2-2.28592270E-13 2.05226602E-01-7.17670154E-01-4.72929077E-10-5.77759770E-02
10  3 2.02040544E-01 2.14360085E-10-1.98849765E-02 6.95370579E-02 7.07943290E-11
10  4 1.64188816E-13 1.64329395E-13-3.28518211E-13 9.56866384E-17 1.59946227E-05
10  5-5.59326312E-05-1.55090471E-14-1.59935870E-14 3.15026341E-14-9.05116908E-17
10  6 4.45238945E-05-1.55698482E-04 3.56845434E-13 3.57100940E-13-7.13946374E-13
10  7 6.84848891E-17-1.95434769E-05 6.83428412E-05-3.79916640E-04 1.32855501E-03
10  8-6.12150894E-14 1.61368846E-13 1.61077655E-13-3.22446501E-13 8.41416398E-17
10  9 6.52975722E-06-2.28343410E-05 4.34020663E-06-1.51775483E-05-2.72032550E-14
10 10-6.78760595E-06 1.82010675E-14 1.94099941E-06 1.82959289E-14-7.76399765E-06
10 11 2.71504238E-05-2.78866257E-18 1.21282698E-12-1.31626709E-12-2.48339446E-11
10 12-1.83767128E-11 9.54631634E-13 6.81519594E-13 2.05298468E-01-7.17921433E-01
10 13-2.63689886E-10-5.80313026E-02 2.02933399E-01 6.67388030E-11-1.96484930E-02
10 14 6.87100805E-02 2.32594941E-11-3.82226313E-14-3.85907462E-14 7.68133775E-14
10 15 1.34806316E-17-3.74639235E-05 1.31010006E-04-6.14021329E-14-6.12259571E-14
10 16 1.22628090E-13-3.10293754E-17-5.18966189E-05 1.81480628E-04-3.68699771E-13
10 17-3.68865317E-13 7.37565088E-13-7.74648773E-19 1.92053257E-05-6.71603426E-05
10 18-2.63027020E-04 9.19796143E-04-1.64787731E-12-9.58791380E-14-9.56850350E-14
10 19 1.91564173E-13-5.75669360E-17 8.35423088E-05-2.92144500E-04 6.61392904E-06
10 20-2.31286748E-05-4.11527875E-14-1.03434578E-05 2.76769894E-14 2.95783899E-06
10 21 2.75352688E-14-1.18313560E-05 4.13738313E-05 1.21222989E-17
11  1 5.18123037E-11-2.66609411E-10 4.41387044E-11 4.07350734E-11 3.81452174E-13
11  2-1.88079320E-14-4.32082094E-02 7.44373987E-01 1.46754679E-10 9.47205977E-03
11  3-1.63180901E-01-1.08019892E-10 3.39317181E-03-5.84562229E-02-3.44106087E-11
11  4-6.32694136E-14-6.34733864E-14 1.26742800E-13-5.03161181E-17-7.71351143E-06
11  5 1.32885340E-04 1.34313267E-14 1.34150429E-14-2.68463696E-14 7.34758357E-17
11  6-1.02508707E-05 1.76597956E-04-4.40431868E-15-4.31350753E-15 8.71782621E-15
11  7-9.07294549E-17-7.04322166E-06 1.21337869E-04 1.91383720E-05-3.29708160E-04
11  8-8.04321809E-13-6.14612905E-14-6.15596685E-14 1.23020959E-13-1.24383574E-17
11  9-2.84017634E-05 4.89294435E-04 1.62468558E-07-2.79894683E-06-1.36585790E-14
11 10-1.25172708E-06 9.11380866E-15 7.26581482E-08 9.21109802E-15-2.90632593E-07
11 11 5.00690831E-06-1.16427550E-18 2.66830660E-11-6.79542644E-11 1.66029165E-11
11 12 1.41282337E-11-3.83572718E-14-1.65170407E-13 4.32252549E-02-7.44667831E-01
11 13-7.98012574E-11-9.53286337E-03 1.64228459E-01 4.88969058E-11-3.33536199E-03
11 14 5.74603175E-02 1.57877619E-11-1.78454729E-14-1.81426416E-14 3.59881145E-14
11 15-1.29576926E-17-6.70132439E-06 1.15447806E-04 2.00690384E-14 2.03173761E-14
11 16-4.03864145E-14 1.12760520E-17-9.85811233E-06 1.69831717E-04 5.43569982E-14
11 17 5.41223198E-14-1.08479318E-13-2.10753980E-17-2.14644935E-06 3.69781775E-05
11 18 6.90629164E-06-1.18978754E-04 5.59802866E-13-1.00091404E-14-9.82840181E-15
11 19 1.98375422E-14 2.21804195E-17-3.32606576E-05 5.73001521E-04 2.35742308E-07
11 20-4.06127920E-06 2.96757637E-14-1.81625927E-06-1.99299624E-14 1.05427165E-07
11 21-1.98842525E-14-4.21708661E-07 7.26503709E-06-1.38259867E-17
12  1-1.98389944E-11 1.70099647E-11-4.82957387E-11-3.50528360E-11-1.82512183E-12
12  2-1.20440911E-13-7.44373989E-01-4.32081991E-02-3.18578536E-10 1.63180901E-01
12  3 9.47205668E-03 1.30653165E-10 5.84562231E-02 3.39317076E-03 4.35571506E-11
12  4 1.05966993E-13 1.06687075E-13-2.12654068E-13 9.74596883E-17-1.32885341E-04
12  5-7.71351057E-06-6.08384892E-15-6.85277498E-15 1.29366239E-14-3.77712697E-16
12  6-1.76597956E-04-1.02508683E-05 2.39744995E-13 2.40280785E-13-4.80025780E-13
12  7 3.11914379E-16-1.21337869E-04-7.04322274E-06 3.29708163E-04 1.91383509E-05
12  8-1.58965127E-13 9.34113746E-14 9.31118714E-14-1.86523246E-13 1.35508877E-17
12  9-4.89294436E-04-2.84017631E-05 2.79894680E-06 1.62468790E-07-2.09320427E-14
12 10 7.26582517E-08 1.40146852E-14 1.25172706E-06 1.40685971E-14-5.00690824E-06
12 11-2.90633007E-07 3.62218698E-19-4.32799718E-12-6.03126363E-11-3.09456021E-11
12 12-2.08814530E-11 1.80546859E-13 6.24968965E-13 7.44667829E-01 4.32252652E-02
12 13-2.26892157E-10-1.64228458E-01-9.53286651E-03 5.61859021E-11-5.74603173E-02
12 14-3.33536305E-03 1.95458343E-11-2.75626785E-14-2.72802880E-14 5.48429665E-14
12 15 1.56284634E-18-1.15447805E-04-6.70132641E-06-4.87541107E-14-4.91497145E-14
12 16 9.79038252E-14-2.48756762E-17-1.69831717E-04-9.85811514E-06-2.21979740E-13
12 17-2.21899181E-13 4.43878921E-13-1.74689473E-17-3.69781776E-05-2.14644830E-06
12 18 1.18978756E-04 6.90627703E-06-1.02418300E-12-7.50130030E-14-7.49353390E-14
12 19 1.49948342E-13-3.35066166E-18-5.73001522E-04-3.32606533E-05 4.06127914E-06
12 20 2.35742660E-07-2.10209286E-14 1.05427322E-07 1.41829294E-14 1.81625925E-06
12 21 1.40196058E-14-7.26503698E-06-4.21709290E-07 5.02904457E-19
13  1 1.60755389E-02-5.24145119E-02-1.17437283E-02-8.01503591E-03 1.36247290E-03
13  2-2.25294234E-04 2.84706477E-11 5.39660146E-11 2.10771601E-01-4.24560144E-11
13  3-5.06167865E-11 4.99171662E-01-1.30826608E-11-1.58425064E-11 1.47241801E-01
13  4 2.27619177E-04 2.27619177E-04-4.55238354E-04-1.04176580E-16 2.29890723E-14
13  5 2.12872248E-14-7.00667210E-05-7.00667210E-05 1.40133442E-04-7.61816214E-18
13  6 3.86922307E-14 4.37274701E-14-3.08374179E-04-3.08374178E-04 6.16748357E-04
13  7 2.87664486E-17 2.86623677E-15-9.24597308E-15-3.95336087E-13-4.68171157E-13
13  8 6.18371780E-03 1.19308268E-04 1.19308268E-04-2.38616536E-04-6.14740420E-19
13  9 3.07621259E-14 2.30700592E-14 1.45748267E-15 2.61307034E-15 1.22254689E-04
13 10 1.21331157E-15-8.20109386E-05 6.77441642E-16-8.20109386E-05-2.63285984E-15
13 11-4.71911332E-15-1.48457001E-17 1.61165438E-02-5.24548053E-02-1.12272448E-02
13 12-8.23073250E-03 2.07013079E-04 1.61592693E-04-1.90004973E-11 1.47444723E-11
13 13-2.11368911E-01-1.09185631E-12-2.81824893E-11-4.96839664E-01-1.41118622E-13
13 14-8.75545251E-12-1.50681123E-01 1.77806642E-04 1.77806641E-04-3.55613283E-04
13 15 5.94875142E-18 1.43031584E-15-1.67721486E-14 8.55465300E-05 8.55465300E-05
13 16-1.71093060E-04 4.11542775E-18-5.53043264E-16-2.52182418E-14-2.38081614E-04
13 17-2.38081614E-04 4.76163228E-04-2.76221347E-18 1.18693324E-14 1.67654666E-14
13 18-6.46406379E-14-2.04149576E-13-3.79207490E-03 7.96045085E-05 7.96045085E-05
13 19-1.59209017E-04 6.77388255E-19 4.42227468E-14 4.88622106E-14 1.06490953E-15
13 20 3.30959817E-15-2.01153862E-04 1.48245086E-15 1.34938113E-04 4.71389718E-16
13 21 1.34938113E-04-1.90011577E-15-5.92274275E-15 4.64519516E-18
14  1-7.72459065E-04 3.45159168E-03-6.75612573E-03-4.87826514E-03-3.37147812E-03
14  2-7.75069464E-04 1.31665049E-11 1.42015815E-11 6.77606087E-02-6.61338674E-11
14  3-1.26006493E-09 5.61112206E-01-1.99528749E-11-3.77435991E-10 1.67857045E-01
14  4 4.12834074E-04 4.12834074E-04-8.25668148E-04-1.13220010E-16 7.82161326E-15
14  5 4.32531992E-13 1.49714408E-04 1.49714408E-04-2.99428816E-04-1.69827932E-17
14  6 5.11989874E-14 1.06193921E-12 7.84480335E-04 7.84480335E-04-1.56896067E-03
14  7-2.78943889E-18-5.95899435E-14-5.05053388E-13-7.59172223E-13-1.38527391E-11
14  8 2.34378055E-03 2.17990099E-04 2.17990099E-04-4.35980198E-04-1.82535790E-20
14  9-1.52693784E-14 1.87158634E-13 6.22535526E-15 7.95813833E-14-1.18991384E-04
14 10 3.55734441E-14 7.98218470E-05 2.75434116E-15 7.98218470E-05-1.11065317E-14
14 11-1.42343074E-13 9.98212661E-18 7.70747897E-04-3.45395907E-03 6.72844900E-03
14 12 4.95835539E-03 3.12195567E-03 6.82295536E-04 1.32636244E-11-3.95530988E-11
14 13 6.83313358E-02-1.30918596E-10-1.17564323E-09 5.58801945E-01-4.02518096E-11
14 14-3.59815484E-10 1.71583151E-01-2.77949334E-04-2.77949334E-04 5.55898668E-04
14 15-7.22986560E-18-8.62347962E-14-7.37974137E-13-2.62820819E-04-2.62820818E-04
14 16 5.25641637E-04-4.36717393E-18-1.19111759E-13-1.07364233E-12-7.60431245E-04
14 17-7.60431245E-04 1.52086249E-03-1.74495058E-18 3.32027436E-14 4.79744612E-13
14 18-7.88694197E-13-7.67578159E-12 1.53926126E-04-1.47347702E-04-1.47347702E-04
14 19 2.94695404E-04 7.13751950E-19 1.53972399E-14 5.86959097E-13 1.07237971E-14
14 20 1.08035457E-13 3.62820379E-05 4.83158651E-14-2.43387309E-05 4.80021742E-15
14 21-2.43387309E-05-1.91877010E-14-1.93260640E-13-4.64952541E-18
15  1-3.89200289E-12-4.08042451E-12-1.06090382E-11-7.43990637E-12-4.12304971E-12
15  2-9.18858201E-13 1.68136604E-02 1.00907881E-02 1.12495142E-10 4.93318800E-01
15  3 2.96067324E-01 7.07862146E-10 1.47476909E-01 8.85088786E-02 2.11395166E-10
15  4 5.15308001E-13 5.15347879E-13-1.03065588E-12-8.74571140E-17-1.62653827E-04
15  5-9.76173689E-05 1.82938161E-13 1.82778816E-13-3.65716977E-13-4.43207915E-16
15  6-4.13716938E-04-2.48293936E-04 9.40638651E-13 9.40579009E-13-1.88121766E-12
15  7 1.05809445E-16 2.13696904E-04 1.28251083E-04 5.47724006E-03 3.28718834E-03
15  8 3.17982281E-12 2.69565093E-13 2.69377069E-13-5.38942162E-13-5.96604642E-17
15  9-5.73276372E-05-3.44054192E-05-3.20763857E-05-1.92507760E-05-1.38504648E-13
15 10-8.60920873E-06 9.29066543E-14-1.43449958E-05 9.29168306E-14 5.73799831E-05
15 11 3.44368349E-05-3.09244941E-17-5.93797150E-12 1.12050336E-11 8.30870929E-12
15 12 5.59036273E-12 3.85268709E-12 8.08246945E-13 1.72432607E-02 1.03486147E-02
15 13 6.77767350E-11 4.91560284E-01 2.95011943E-01 6.58450845E-10 1.50453294E-01
15 14 9.02951688E-02 2.02334321E-10-3.31988796E-13-3.32210536E-13 6.64199332E-13
15 15 4.34116338E-18 3.10117176E-04 1.86118110E-04-3.08202443E-13-3.08360734E-13
15 16 6.16563177E-13 7.90652588E-17 4.49144148E-04 2.69555724E-04-9.46362183E-13
15 17-9.45885557E-13 1.89224774E-12 2.38210272E-17-1.91589809E-04-1.14983419E-04
15 18 3.17728076E-03 1.90685823E-03 3.31779146E-15-1.78776534E-13-1.79080951E-13
15 19 3.57857485E-13-2.37958838E-17-2.12258459E-04-1.27387795E-04-4.44015971E-05
15 20-2.66478026E-05 3.51148834E-14-1.19172596E-05-2.29507232E-14-1.98569979E-05
15 21-2.41608366E-14 7.94279915E-05 4.76690385E-05 9.39060558E-18