%nproc=24
%mem=10gb
#p casscf/def2tzvp guess(fragment=2) 

mokit{crazywfn, casscf_prog=openmolcas }

0 1 0 7 0 -7
Cr(fragment=1) 0.0 0.0 0.0
Cr(fragment=2) 0.0 0.0 3.0

