 $CONTRL SCFTYP=GVB RUNTYP=ENERGY ICHARG=0 MULT=1 NOSYM=1 ICUT=11
  MAXIT=500 ISPHER=1 $END
 $SYSTEM MWORDS=156 $END
 $SCF NCO=2 NPAIR=4 DIRSCF=.TRUE. $END
 $GUESS GUESS=MOREAD NORB=62 $END
 $DATA
GAMESS inp file produced by MOKIT,nif=62,nbf=62
C1   1
C     6.         0.00000000         0.00000000         0.00000000
   S  6
   1   1.35753497E+04   6.06455036E-04   0.00000000E+00
   2   2.03523337E+03   4.69790889E-03   0.00000000E+00
   3   4.63225624E+02   2.43324776E-02   0.00000000E+00
   4   1.31200196E+02   9.73999683E-02   0.00000000E+00
   5   4.28530159E+01   3.01955843E-01   0.00000000E+00
   6   1.55841858E+01   6.62336091E-01   0.00000000E+00
   S  2
   1   6.20671385E+00   6.55953085E-01   0.00000000E+00
   2   2.57648965E+00   3.75856333E-01   0.00000000E+00
   S  1
   1   5.76963394E-01   1.00000000E+00   0.00000000E+00
   S  1
   1   2.29728314E-01   1.00000000E+00   0.00000000E+00
   S  1
   1   9.51644400E-02   1.00000000E+00   0.00000000E+00
   P  4
   1   3.46972322E+01   1.13272200E-02   0.00000000E+00
   2   7.95826228E+00   7.61696592E-02   0.00000000E+00
   3   2.37808269E+00   3.01922522E-01   0.00000000E+00
   4   8.14332082E-01   7.27850273E-01   0.00000000E+00
   P  1
   1   2.88875473E-01   1.00000000E+00   0.00000000E+00
   P  1
   1   1.00568237E-01   1.00000000E+00   0.00000000E+00
   D  1
   1   1.09700000E+00   1.00000000E+00   0.00000000E+00
   D  1
   1   3.18000000E-01   1.00000000E+00   0.00000000E+00
   F  1
   1   7.61000000E-01   1.00000000E+00   0.00000000E+00

C     6.         0.00000000         0.00000000         2.00000001
   S  6
   1   1.35753497E+04   6.06455036E-04   0.00000000E+00
   2   2.03523337E+03   4.69790889E-03   0.00000000E+00
   3   4.63225624E+02   2.43324776E-02   0.00000000E+00
   4   1.31200196E+02   9.73999683E-02   0.00000000E+00
   5   4.28530159E+01   3.01955843E-01   0.00000000E+00
   6   1.55841858E+01   6.62336091E-01   0.00000000E+00
   S  2
   1   6.20671385E+00   6.55953085E-01   0.00000000E+00
   2   2.57648965E+00   3.75856333E-01   0.00000000E+00
   S  1
   1   5.76963394E-01   1.00000000E+00   0.00000000E+00
   S  1
   1   2.29728314E-01   1.00000000E+00   0.00000000E+00
   S  1
   1   9.51644400E-02   1.00000000E+00   0.00000000E+00
   P  4
   1   3.46972322E+01   1.13272200E-02   0.00000000E+00
   2   7.95826228E+00   7.61696592E-02   0.00000000E+00
   3   2.37808269E+00   3.01922522E-01   0.00000000E+00
   4   8.14332082E-01   7.27850273E-01   0.00000000E+00
   P  1
   1   2.88875473E-01   1.00000000E+00   0.00000000E+00
   P  1
   1   1.00568237E-01   1.00000000E+00   0.00000000E+00
   D  1
   1   1.09700000E+00   1.00000000E+00   0.00000000E+00
   D  1
   1   3.18000000E-01   1.00000000E+00   0.00000000E+00
   F  1
   1   7.61000000E-01   1.00000000E+00   0.00000000E+00

 $END
 $VEC
 1  1-3.31254143E-01-4.35312749E-01-1.00045725E-02 8.89025910E-03-9.54356262E-04
 1  2 4.25340850E-05 1.95184389E-04-1.53001633E-04-2.04307430E-05-9.37545052E-05
 1  3 1.17069856E-03 1.43103575E-05 6.56687075E-05-2.26734661E-04-4.69794802E-04
 1  4 3.44429482E-04 1.25365320E-04 2.15097314E-04-1.24864313E-04-5.72989044E-04
 1  5 1.02379454E-05-8.94211228E-05 7.91831774E-05-2.63273870E-05 1.82146221E-05
 1  6 8.35849624E-05 8.82646270E-06 1.48080680E-05 6.37237807E-05 1.69679805E-05
 1  7-4.83215563E-05-3.81493366E-06-3.71728670E-05-8.02700870E-06-3.68350885E-05
 1  8 2.94519970E-06-3.31840071E-01-4.35205228E-01-7.27036397E-03 5.14651568E-03
 1  9 2.57571473E-04-7.36011404E-05-3.37747800E-04 4.47219815E-04 2.63149829E-05
 1 10 1.20756656E-04-5.59280642E-04-2.90981964E-05-1.33528526E-04 5.04374217E-05
 1 11 3.26878678E-04-1.59804231E-04-1.67074447E-04-1.28569227E-04 8.86563241E-05
 1 12 4.06834435E-04-1.70030668E-04 1.05686358E-04 6.43443100E-05 7.28374145E-05
 1 13-4.75906207E-05-2.18388293E-04-3.30465196E-07-2.25141154E-06-4.70855059E-05
 1 14-7.10958479E-07 3.85915926E-05-3.69802988E-07 2.45802425E-05 8.13168573E-07
 1 15 3.73154402E-06-3.70144176E-06
 2  1-3.30856806E-01-4.34358512E-01-1.21864187E-02 8.35651225E-03-1.99197565E-03
 2  2 6.16943902E-06 2.83108993E-05-1.07162303E-03-4.34717889E-05-1.99487413E-04
 2  3 1.41058730E-03-1.17166098E-05-5.37662754E-05-6.24191681E-04-4.86863833E-04
 2  4 3.77110207E-04 1.09753626E-04 2.28239932E-04-1.35120451E-04-6.20053370E-04
 2  5-3.03591596E-04-2.70518961E-04 5.74110557E-04 8.73694769E-06 2.22793705E-05
 2  6 1.02237660E-04 3.76644260E-06-1.14734380E-05 1.31036779E-04 6.44720450E-06
 2  7-1.00490934E-04-7.00270865E-06-7.53133528E-05 1.94949563E-06 8.94602794E-06
 2  8 6.65127565E-06 3.31501161E-01 4.34370257E-01 9.34770687E-03-5.56419629E-03
 2  9 1.53522073E-03 5.49808819E-05 2.52301415E-04-1.03254089E-03-3.99905178E-05
 2 10-1.83512230E-04 1.44813395E-03 3.04111918E-05 1.39553723E-04-6.21043346E-04
 2 11-3.65864163E-04 1.59301627E-04 2.06562536E-04 1.38735423E-04-9.51732351E-05
 2 12-4.36739846E-04 3.97243742E-04 2.12938440E-04-6.10182182E-04-4.86887657E-05
 2 13 3.36448070E-05 1.54392438E-04 1.03193475E-06 3.78154161E-06 1.10312517E-04
 2 14 2.07521623E-06-7.24453120E-05 1.73337857E-07-7.55544601E-05-1.55782360E-06
 2 15-7.14868669E-06-8.21357730E-07
 3  1-1.03126561E-01-2.35044208E-01 4.05029651E-01 5.22494168E-01 1.99714969E-01
 3  2-3.82707084E-03-1.75620209E-02-1.07597878E-01-3.20223625E-03-1.46947215E-02
 3  3-1.03785767E-01-7.92777675E-04-3.63797246E-03-5.71846736E-02 4.81275901E-04
 3  4 2.05308150E-03-2.53435740E-03 4.15230996E-04 2.50962763E-05 1.15164136E-04
 3  5 8.91933748E-04 5.14084234E-03-6.03277609E-03 1.12245341E-03 2.00981351E-04
 3  6 9.22282015E-04-7.62885160E-04-2.80031492E-05 1.42673335E-03-1.41074534E-03
 3  7 6.18718088E-04 7.07904620E-04-2.53288174E-03 3.15613226E-04 1.44831550E-03
 3  8-8.32572389E-04 4.74414686E-03 9.99053826E-03-1.60139896E-02-3.07999976E-02
 3  9-2.21310753E-02 5.48703670E-03 2.51794271E-02 2.33904976E-02 5.88896612E-03
 3 10 2.70238385E-02 2.62636325E-02 3.82871264E-03 1.75695546E-02 3.11184924E-02
 3 11-1.38026996E-03-6.65028839E-04 2.04529880E-03 1.88948484E-04 2.09604005E-05
 3 12 9.61850511E-05-1.82247483E-03-9.89952760E-04 2.81242759E-03 2.19931124E-04
 3 13-4.10823187E-04-1.88522386E-03 3.47675658E-05-3.85739353E-04-1.80778362E-03
 3 14 4.70351451E-05 8.52976428E-04-1.49173241E-04 1.57241981E-03 1.02527657E-04
 3 15 4.70488504E-04 1.90058614E-04
 4  1-2.21869304E-02-5.81281131E-02 1.57602460E-01 1.62581585E-01-1.98660424E-01
 4  2-9.17293901E-02-4.20936408E-01 2.02789341E-01-8.68169740E-02-3.98393854E-01
 4  3 2.30225230E-01-3.08736087E-02-1.41675704E-01 9.13554474E-02 5.47752997E-02
 4  4-3.41779890E-02-2.05973107E-02-2.34991928E-02 1.58636291E-02 7.27965053E-02
 4  5 1.08572049E-01-7.91932691E-02-2.93787800E-02-4.96028139E-02 3.75780785E-02
 4  6 1.72441803E-01-4.94231053E-04-8.08484176E-03-7.15800490E-05-1.27365544E-03
 4  7-1.72616057E-03-1.97821168E-03 1.82219529E-03 2.64129222E-03 1.21206089E-02
 4  8 9.37385223E-04 1.23242147E-02 2.91302056E-02-5.21403004E-02-9.28936172E-02
 4  9-1.72516313E-03 1.05861245E-02 4.85785990E-02 9.26071185E-02 1.34115658E-02
 4 10 6.15442485E-02 1.15687295E-01 4.92238592E-03 2.25883052E-02 1.41677256E-02
 4 11-7.45791181E-03 7.18533939E-03 2.72572420E-04 3.86837393E-03-2.13955848E-03
 4 12-9.81820614E-03-2.82524344E-03 1.82962184E-02-1.54709750E-02 5.57975214E-03
 4 13-8.39234170E-03-3.85115628E-02-1.73078455E-03-6.72248279E-03-2.29212645E-04
 4 14-3.49754491E-03 3.10821243E-03-4.05516678E-04-2.80069139E-03 2.72760783E-03
 4 15 1.25167020E-02-1.56098186E-03
 5  1 7.83153189E-06 1.76206312E-05-2.27103544E-05-4.13313958E-05 2.13236570E-05
 5  2 3.06865370E-01-6.69166188E-02-1.30329601E-04 3.02268812E-01-6.59147490E-02
 5  3-1.34779996E-04 1.51706688E-01-3.30818082E-02-6.03983342E-05-1.36123561E-03
 5  4 1.36623085E-03-4.99524044E-06-3.43828193E-03 5.39755712E-03-1.17636196E-03
 5  5-3.04326658E-03 3.05754537E-03-1.42787850E-05-7.69295279E-03 1.81328486E-02
 5  6-3.95252716E-03-7.71717282E-04 3.11974768E-04-1.24471225E-06-6.02838515E-05
 5  7 5.08068428E-04-6.10166212E-04-5.06398471E-04 1.64553359E-03-3.58274221E-04
 5  8 1.27663104E-03 7.83049956E-06 1.76182864E-05-2.27063278E-05-4.13261013E-05
 5  9 2.13257804E-05 3.06884245E-01-6.68301346E-02 1.30330437E-04 3.02287595E-01
 5 10-6.58286440E-02 1.34780764E-04 1.51715947E-01-3.30392800E-02 6.03985941E-05
 5 11 1.36412540E-03-1.35913012E-03-4.99528326E-06 3.43939611E-03-5.39761058E-03
 5 12 1.17609350E-03 3.05426743E-03-3.03998856E-03-1.42788673E-05 7.69468787E-03
 5 13-1.81332769E-02 3.95049461E-03-7.71138851E-04 3.11638616E-04 1.24471623E-06
 5 14-5.92284683E-05 5.04160277E-04-6.10812996E-04-5.05830239E-04 1.64540433E-03
 5 15-3.58878610E-04 1.27781340E-03
 6  1 9.94596475E-06 2.41951915E-05-5.00995097E-05-7.97669498E-05-4.82599492E-07
 6  2 3.54328500E-01-7.72979244E-02-1.31866372E-04 3.50454481E-01-7.64684621E-02
 6  3-1.45857073E-04 1.76961717E-01-3.86284933E-02-5.75757873E-05-2.08392553E-03
 6  4 2.08194151E-03 1.98402150E-06-5.22808708E-03 1.87686758E-03-4.23760820E-04
 6  5-3.47728371E-03 3.48060083E-03-3.31711473E-06-8.72464013E-03 6.57627833E-03
 6  6-1.48051769E-03 2.61459582E-03 4.78311374E-04 1.17755967E-06-1.23109656E-03
 6  7 1.42365182E-03-7.56964281E-04-1.42523168E-03-2.75088411E-03 5.89374508E-04
 6  8 3.59839525E-03-9.94586728E-06-2.41949073E-05 5.00984835E-05 7.97662963E-05
 6  9 4.84462089E-07-3.54363276E-01 7.71383782E-02-1.31865386E-04-3.50495392E-01
 6 10 7.62807447E-02-1.45856057E-04-1.76988900E-01 3.85035222E-02-5.75750502E-05
 6 11-2.06335064E-03 2.06533444E-03-1.98380269E-06-5.23791237E-03 1.88300095E-03
 6 12-3.95580799E-04-3.44471559E-03 3.44139799E-03 3.31759210E-06-8.74360521E-03
 6 13 6.59598969E-03-1.38995078E-03-2.61211454E-03-4.67719655E-04 1.17754568E-06
 6 14 1.23615233E-03-1.42765396E-03 7.57839860E-04 1.42607411E-03 2.74667955E-03
 6 15-6.08640568E-04-3.59711493E-03
 7  1-4.74414640E-03-9.99053741E-03 1.60139910E-02 3.07999913E-02 2.21310847E-02
 7  2 5.48704994E-03 2.51794743E-02 2.33904629E-02 5.88897914E-03 2.70238848E-02
 7  3 2.62635940E-02 3.82872253E-03 1.75695933E-02 3.11184733E-02 1.38027095E-03
 7  4 6.65028712E-04-2.04529966E-03-1.88948817E-04-2.09597821E-05-9.61824531E-05
 7  5 1.82247777E-03 9.89953043E-04-2.81243081E-03-2.19931911E-04 4.10825067E-04
 7  6 1.88523169E-03 3.47674719E-05-3.85738444E-04-1.80778473E-03 4.70350258E-05
 7  7 8.52976954E-04-1.49172891E-04 1.57242077E-03 1.02527433E-04 4.70487403E-04
 7  8 1.90058743E-04 1.03126563E-01 2.35044215E-01-4.05029667E-01-5.22494186E-01
 7  9-1.99714937E-01-3.82704846E-03-1.75619319E-02-1.07597847E-01-3.20221395E-03
 7 10-1.46946326E-02-1.03785734E-01-7.92763094E-04-3.63791228E-03-5.71846542E-02
 7 11-4.81275779E-04-2.05307987E-03 2.53435565E-03-4.15230560E-04-2.50973398E-05
 7 12-1.15168778E-04-8.91934376E-04-5.14083938E-03 6.03277376E-03-1.12245238E-03
 7 13-2.00984948E-04-9.22297718E-04-7.62885300E-04-2.79991011E-05 1.42673521E-03
 7 14-1.41074540E-03 6.18715844E-04 7.07905960E-04-2.53288199E-03 3.15612074E-04
 7 15 1.44831014E-03-8.32571848E-04
 8  1 1.23241994E-02 2.91301710E-02-5.21402583E-02-9.28934920E-02-1.72496022E-03
 8  2-1.05861292E-02-4.85786363E-02-9.26070070E-02-1.34115716E-02-6.15442906E-02
 8  3-1.15687160E-01-4.92237803E-03-2.25882769E-02-1.41676418E-02-7.45791491E-03
 8  4 7.18532206E-03 2.72592850E-04 3.86837012E-03-2.13956080E-03-9.81821690E-03
 8  5-2.82524275E-03 1.82961679E-02-1.54709251E-02 5.57973852E-03-8.39234579E-03
 8  6-3.85115819E-02 1.73078545E-03 6.72248773E-03 2.29233802E-04 3.49754673E-03
 8  7-3.10822192E-03 4.05517346E-04 2.80067250E-03-2.72760970E-03-1.25167105E-02
 8  8 1.56097942E-03-2.21869289E-02-5.81281137E-02 1.57602478E-01 1.62581659E-01
 8  9-1.98660780E-01 9.17294274E-02 4.20936595E-01-2.02788935E-01 8.68170107E-02
 8 10 3.98394038E-01-2.30224863E-01 3.08736146E-02 1.41675739E-01-9.13552108E-02
 8 11 5.47753054E-02-3.41781201E-02-2.05971853E-02-2.34992290E-02 1.58636263E-02
 8 12 7.27964926E-02 1.08572074E-01-7.91935544E-02-2.93785194E-02-4.96028957E-02
 8 13 3.75780719E-02 1.72441772E-01 4.94230354E-04 8.08485017E-03 7.15617277E-05
 8 14 1.27365456E-03 1.72616775E-03 1.97821487E-03-1.82217789E-03-2.64129447E-03
 8 15-1.21206193E-02-9.37382564E-04
 9  1-1.64653655E-02-3.70464217E-02 4.77471953E-02 8.68968794E-02-4.48326656E-02
 9  2 1.99591576E-02 9.08888489E-02 2.74012511E-01 1.98697088E-02 9.04888869E-02
 9  3 2.83369232E-01 9.81417387E-03 4.46893450E-02 1.26984562E-01-3.03789540E-03
 9  4-7.46444420E-03 1.05023396E-02-1.17135949E-03 6.38271293E-05 2.80555519E-04
 9  5-1.15647992E-02-1.84558474E-02 3.00206466E-02-1.82486495E-03 4.73548764E-04
 9  6 2.13160764E-03 6.08750064E-04-3.53749836E-04 2.61699449E-03 1.10958704E-03
 9  7-4.10806560E-03-6.79170097E-04 5.96999050E-04-1.37553818E-04-6.34981829E-04
 9  8 1.24369290E-03-1.64653574E-02-3.70464034E-02 4.77471660E-02 8.68968440E-02
 9  9-4.48326758E-02-1.96671955E-02-9.09522677E-02-2.74012581E-01-1.95821191E-02
 9 10-9.05513521E-02-2.83369300E-01-9.66982574E-03-4.47206553E-02-1.26984585E-01
 9 11-3.03660016E-03-7.46573944E-03 1.05023396E-02-1.16808770E-03 5.86902771E-05
 9 12 2.81663806E-04-1.15619019E-02-1.84587457E-02 3.00206476E-02-1.81754483E-03
 9 13 4.56291594E-04 2.13533076E-03-6.09484084E-04 3.54050667E-04-2.61699461E-03
 9 14-1.10964404E-03 4.10854603E-03 6.78590808E-04-5.97479319E-04 1.39117898E-04
 9 15 6.34635222E-04-1.24247733E-03
10  1-2.09112435E-02-5.08700131E-02 1.05333266E-01 1.67708712E-01 1.01475238E-03
10  2 3.67172767E-02 1.67681542E-01 2.77245665E-01 4.31687614E-02 1.97295568E-01
10  3 3.06661014E-01 2.87101271E-02 1.31343103E-01 1.21051090E-01 2.16295363E-02
10  4-1.74582077E-02-4.17132865E-03-1.03289963E-02 6.45623354E-03 2.96226705E-02
10  5 3.42377822E-02-4.12121964E-02 6.97441422E-03-1.99369863E-02 2.07496093E-02
10  6 9.52026910E-02-2.60570882E-03-1.11364920E-02-2.47577788E-03-5.31376707E-03
10  7 4.20804150E-03-9.16610008E-04-8.86436921E-04 4.41253524E-03 2.02549390E-02
10  8-1.34376194E-03 2.09112313E-02 5.08699856E-02-1.05333197E-01-1.67708709E-01
10  9-1.01463415E-03 3.63801436E-02 1.67754740E-01 2.77245859E-01 4.28353098E-02
10 10 1.97367960E-01 3.06661240E-01 2.85417504E-02 1.31379670E-01 1.21051127E-01
10 11-2.16314992E-02 1.74602259E-02 4.17127331E-03 1.03240278E-02-6.45443977E-03
10 12-2.96230352E-02-3.42410644E-02 4.12155930E-02-6.97452863E-03 1.99287027E-02
10 13-2.07433328E-02-9.52040041E-02-2.60819548E-03-1.11369406E-02-2.47574595E-03
10 14-5.31259474E-03 4.20667323E-03-9.15888468E-04-8.85111489E-04 4.41514991E-03
10 15 2.02543685E-02-1.34718929E-03
11  1 1.04230823E-01-2.66503965E-01 1.15885909E+00-2.96423800E+00 6.82213924E+00
11  2-9.07227261E-04-4.16316934E-03 4.57429533E-02-1.81053291E-03-8.30834282E-03
11  3-5.54381935E-02 7.73691313E-04 3.55038709E-03 3.55936939E+00 1.09182063E-01
11  4 1.09611387E-01-2.18793450E-01 1.13416600E-04-1.87665515E-04-8.61177075E-04
11  5-3.98290499E-01-4.02191124E-01 8.00481623E-01-1.03044594E-03 7.99248661E-04
11  6 3.66766704E-03-1.91075751E-05-1.98522617E-04 3.42987221E-02-4.41554585E-05
11  7-2.28994969E-02-4.20281941E-05-2.31170676E-02 6.76636962E-05 3.10501499E-04
11  8-5.74766443E-05-1.04171042E-01 2.66021484E-01-1.15790099E+00 2.96275770E+00
11  9-6.82144978E+00-9.07285685E-04-4.16343744E-03 4.57330261E-02-1.81009787E-03
11 10-8.30634647E-03-5.53540878E-02 7.73566734E-04 3.54981541E-03 3.55921675E+00
11 11-1.09157724E-01-1.09586457E-01 2.18744181E-01-1.13260278E-04 1.87653754E-04
11 12 8.61123104E-04 3.98223899E-01 4.02124146E-01-8.00348045E-01 1.03034605E-03
11 13-7.99408119E-04-3.66839877E-03-1.92246859E-05-1.98688984E-04 3.42781341E-02
11 14-4.43792497E-05-2.28855766E-02-4.19684814E-05-2.31033662E-02 6.77611040E-05
11 15 3.10948494E-04-5.75344877E-05
12  1 2.21373803E-01-5.43210126E-01 2.55182034E+00-3.88691919E+00-1.22909085E+00
12  2 3.97432396E-04 1.82377496E-03 6.80247618E-01 7.49252514E-04 3.43824004E-03
12  3-2.51158163E+00 4.45703677E-05 2.04528681E-04-1.27102270E+00-1.71305653E-01
12  4-1.70762151E-01 3.42067804E-01 1.43579303E-04-1.51245821E-04-6.94050979E-04
12  5 9.91346251E-01 9.85134079E-01-1.97648033E+00-1.64109758E-03 9.06295049E-04
12  6 4.15889152E-03-2.37867116E-05-4.52251719E-05-5.45535146E-01-4.59647049E-05
12  7 3.66305434E-01 8.67436587E-06 3.65606769E-01 2.32388566E-05 1.06640640E-04
12  8-1.84569505E-04-2.20769322E-01 5.41153539E-01-2.54603074E+00 3.87795455E+00
12  9 1.23331846E+00 3.93896086E-04 1.80754721E-03 6.80212882E-01 7.57986701E-04
12 10 3.47832030E-03-2.51129237E+00 4.05872912E-05 1.86250757E-04-1.27167521E+00
12 11 1.71455661E-01 1.70866772E-01-3.42322433E-01-1.55569529E-04 1.60876845E-04
12 12 7.38246719E-04-9.91711163E-01-9.85476007E-01 1.97718717E+00 1.64716916E-03
12 13-9.16230865E-04-4.20448592E-03-2.50886940E-05-5.10655862E-05-5.45647471E-01
12 14-4.86306670E-05 3.66380273E-01 8.13265464E-06 3.65682629E-01 2.55273605E-05
12 15 1.17142340E-04-1.84299858E-04
13  1-2.78649736E-01 6.34055164E-01-2.06384192E+00 3.22345242E+00-1.54697432E+00
13  2 2.93050545E-04 1.34477776E-03-1.01986101E-02 1.15501807E-03 5.30025497E-03
13  3 7.32814561E-02-1.11779442E-03-5.12943962E-03-1.99624041E-01-4.25872442E-02
13  4-4.26872053E-02 8.52744495E-02-2.64071989E-05 1.17344165E-04 5.38479886E-04
13  5 1.22064227E-01 1.24217911E-01-2.46282138E-01 5.68948622E-04-6.91042113E-04
13  6-3.17111871E-03 1.95835805E-05 1.83998959E-04-4.06704687E-02 4.43872789E-05
13  7 2.74397109E-02 3.71938457E-05 2.71254487E-02-6.34679760E-05-2.91247787E-04
13  8-8.30200666E-05-2.79415498E-01 6.34933093E-01-2.07086965E+00 3.23520091E+00
13  9-1.54670956E+00-2.95779703E-04-1.35730158E-03 1.26405618E-02-1.15312782E-03
13 10-5.29158084E-03-8.16879145E-02 1.11832445E-03 5.13187186E-03 1.98534802E-01
13 11-4.20618641E-02-4.22384044E-02 8.43002685E-02-4.66374495E-05 1.30176364E-04
13 12 5.97365479E-04 1.19174513E-01 1.21427026E-01-2.40601539E-01 5.95056780E-04
13 13-7.05063176E-04-3.23545987E-03-1.93196775E-05-1.82519796E-04 3.89600886E-02
13 14-4.38337360E-05-2.62882112E-02-3.69948238E-05-2.59822327E-02 6.29148911E-05
13 15 2.88709739E-04 8.08317100E-05
14  1 2.12875129E-01-4.02668739E-01 7.09681696E-01-5.76708600E-01 2.88594543E-02
14  2 1.51961014E-04 6.97332917E-04-6.85049976E-01 1.41240522E-03 6.48137725E-03
14  3 1.76974129E+00-1.09051298E-03-5.00424800E-03-1.06049294E+00 5.50084286E-02
14  4 5.27695164E-02-1.07777945E-01-5.91463569E-04 5.39563993E-04 2.47600174E-03
14  5-3.13174527E-01-2.99935161E-01 6.13109688E-01 3.49750301E-03-2.10004044E-03
14  6-9.63686209E-03 2.55100807E-05 2.80602844E-04 2.39421498E-01 5.96447797E-05
14  7-1.61181680E-01 6.08112692E-05-1.60035967E-01-9.50366340E-05-4.36112999E-04
14  8 3.02668088E-04-2.13271271E-01 4.02890836E-01-7.11275709E-01 5.79290024E-01
14  9-3.01953584E-02 1.41859208E-04 6.50976815E-04-6.85081839E-01 1.42623554E-03
14 10 6.54484307E-03 1.76984575E+00-1.09451113E-03-5.02259509E-03-1.06052058E+00
14 11-5.49916196E-02-5.28185204E-02 1.07810140E-01 5.74077443E-04-5.23162427E-04
14 12-2.40073670E-03 3.13218517E-01 3.00024214E-01-6.13242731E-01-3.48559898E-03
14 13 2.07815181E-03 9.53641749E-03 2.26944977E-05 2.67255117E-04 2.39446785E-01
14 14 5.38475411E-05-1.61200244E-01 5.94230171E-05-1.60051329E-01-8.98708808E-05
14 15-4.12407907E-04 3.03514163E-04
15  1-1.27811362E-12 2.01578022E-12-2.45198025E-12 1.97979392E-13 1.38154012E-13
15  2-6.01109312E-01 1.30992211E-01-1.58184005E-12 1.28049920E+00-2.79043126E-01
15  3 2.50476081E-12-1.35335539E+00 2.94919760E-01-9.32288916E-13-3.50489175E-07
15  4 3.50489849E-07-6.74493467E-13-8.84489951E-07 7.93749929E-02-1.72971963E-02
15  5-7.49619454E-06 7.49619214E-06 2.39876957E-12-1.89172746E-05-1.77217821E-01
15  6 3.86188562E-02-1.37928298E-02 3.00822700E-03 7.29343053E-13 1.34181471E-03
15  7 3.74774646E-06-6.17301291E-03-3.74774744E-06 2.46780359E-02-5.37777475E-03
15  8 9.45775518E-06-2.19853647E-13 3.95033195E-13-2.99278129E-13-6.02950875E-13
15  9 1.68645585E-13 6.01109313E-01-1.30992211E-01-3.49953676E-12-1.28049920E+00
15 10 2.79043125E-01 7.08833450E-12 1.35335539E+00-2.94919759E-01-5.28875430E-12
15 11-3.50502604E-07 3.50503033E-07-4.28505167E-13-8.84523252E-07 7.93749925E-02
15 12-1.72971962E-02-7.49614421E-06 7.49614453E-06-3.17246955E-13-1.89171524E-05
15 13-1.77217820E-01 3.86188560E-02 1.37928300E-02-3.00822704E-03 3.54478528E-13
15 14-1.34181473E-03-3.74774318E-06 6.17301300E-03 3.74774270E-06-2.46780363E-02
15 15 5.37777482E-03-9.45774493E-06
16  1 8.57479242E-03-1.44285600E-02 1.98174527E-02-3.74882367E-03-1.03621709E-02
16  2-1.32713812E-01-6.09009560E-01 4.52368552E-03 2.77816371E-01 1.27486976E+00
16  3-2.04411601E-03-2.95089901E-01-1.35413615E+00 3.83468355E-03-1.60131527E-03
16  4-9.19333397E-04 2.52064867E-03 1.80162238E-04 1.75955604E-02 8.07441539E-02
16  5 3.79174930E-03-2.01445173E-05-3.77160478E-03-1.00700524E-03-3.87191242E-02
16  6-1.77677940E-01-2.86153234E-03-1.33054081E-02-5.90574189E-04-5.88024658E-03
16  7 1.72406469E-04-1.33232138E-03 6.19931950E-04 5.17146988E-03 2.37313248E-02
16  8 1.18224831E-04 8.56268013E-03-1.44489214E-02 1.97782914E-02-3.69711413E-03
16  9-1.03449041E-02 1.32713887E-01 6.09009900E-01-4.54017852E-03-2.77816550E-01
16 10-1.27487058E+00 2.07677055E-03 2.95090084E-01 1.35413699E+00-3.88528693E-03
16 11-1.60153148E-03-9.18366717E-04 2.51989820E-03 1.80474728E-04 1.75954090E-02
16 12 8.07434593E-02 3.79087591E-03-2.14475263E-05-3.76942838E-03-1.00711873E-03
16 13-3.87191290E-02-1.77677962E-01 2.86149903E-03 1.33053478E-02 5.92042070E-04
16 14 5.88018236E-03-1.73355371E-04 1.33233443E-03-6.20952417E-04-5.17143824E-03
16 15-2.37311796E-02-1.18243737E-04
17  1-4.29546515E-02 7.98702468E-02-1.66683868E-01-1.10302278E-01-1.18857596E-01
17  2 4.05003784E-04 1.85851925E-03 5.74568043E-01 2.40826203E-04 1.10512582E-03
17  3-1.30461522E+00 9.89401255E-04 4.54025704E-03 1.17492146E+00 1.15623388E-01
17  4 1.15495414E-01-2.31118802E-01-3.38073145E-05-5.50664653E-04-2.52694148E-03
17  5-2.34119557E-01-2.34144988E-01 4.68264545E-01-6.71798455E-06 1.24432171E-03
17  6 5.71005987E-03-2.08874607E-04-9.18849272E-04 8.28335655E-02-4.26887465E-04
17  7-5.55984656E-02-8.14326895E-05-5.55344244E-02 3.61667382E-04 1.65965312E-03
17  8 1.69180521E-05-4.28395089E-02 7.96552549E-02-1.66386538E-01-1.10715154E-01
17  9-1.18651365E-01-4.01897667E-04-1.84426561E-03-5.74525345E-01-2.45654438E-04
17 10-1.12728208E-03 1.30453832E+00-9.85914867E-04-4.52425838E-03-1.17484966E+00
17 11 1.15593940E-01 1.15512394E-01-2.31106334E-01-2.15421980E-05-5.57481969E-04
17 12-2.55822542E-03-2.34090177E-01-2.34152155E-01 4.68242332E-01-1.63731480E-05
17 13 1.24820360E-03 5.72787345E-03 2.08337426E-04 9.16934031E-04-8.28318731E-02
17 14 4.25809570E-04 5.55962891E-02 8.13585501E-05 5.55343302E-02-3.60872538E-04
17 15-1.65600566E-03-1.63679620E-05
18  1-4.03830784E-12 5.70146451E-12-4.47480446E-12-1.76113781E-12 1.69507686E-12
18  2-7.12342561E-01 1.55231877E-01-1.21260495E-12 1.25325656E+00-2.73106479E-01
18  3 9.00449960E-13-7.38301326E-01 1.60888745E-01-2.88374071E-12-7.62377748E-05
18  4 7.62377750E-05-1.48227722E-13-1.92392447E-04 4.02277604E-02-8.76633112E-03
18  5 2.28909682E-04-2.28909682E-04-1.71640408E-13 5.77672867E-04-7.31839731E-02
18  6 1.59480651E-02 3.13361311E-02-6.83584818E-03-1.09961207E-13-3.04716123E-03
18  7-1.04654219E-05 1.40271694E-02 1.04654221E-05-5.60690010E-02 1.22184140E-02
18  8-2.64103739E-05-2.84697344E-13 4.80501342E-13-1.10988092E-12 3.71448967E-14
18  9 3.08383941E-12-7.12342565E-01 1.55231878E-01-2.88209187E-13 1.25325656E+00
18 10-2.73106478E-01 7.30302766E-13-7.38301336E-01 1.60888747E-01-2.51570344E-12
18 11 7.62377804E-05-7.62377792E-05-1.21959544E-12 1.92392459E-04-4.02277695E-02
18 12 8.76633310E-03-2.28909801E-04 2.28909799E-04 2.15406835E-12-5.77673162E-04
18 13 7.31839916E-02-1.59480691E-02 3.13361343E-02-6.83584888E-03-4.19083551E-13
18 14-3.04716149E-03-1.04654557E-05 1.40271708E-02 1.04654562E-05-5.60690067E-02
18 15 1.22184152E-02-2.64104595E-05
19  1-8.92201102E-03 1.24581740E-02-8.00546241E-03-4.10342183E-03-1.98411440E-02
19  2 1.55714483E-01 7.14557188E-01-4.36353052E-03-2.72781240E-01-1.25176407E+00
19  3 5.52662426E-03 1.60844074E-01 7.38096334E-01-2.85437220E-02-1.39266123E-03
19  4-3.35798534E-03 4.75064657E-03-5.19188562E-04-8.52074833E-03-3.91008072E-02
19  5 2.12583118E-03 8.60145782E-03-1.07272890E-02 1.71069559E-03 1.50252039E-02
19  6 6.89490613E-02-6.91104305E-03-3.15184130E-02-1.83257799E-03-1.41742268E-02
19  7 1.05462364E-03-3.03161627E-03 1.40403773E-03 1.23037535E-02 5.64606152E-02
19  8 9.23063006E-05 8.93156849E-03-1.25094592E-02 8.00416846E-03 4.13759390E-03
19  9 1.98204063E-02 1.55714560E-01 7.14557543E-01-4.34983812E-03-2.72781408E-01
19 10-1.25176485E+00 5.50207896E-03 1.60843312E-01 7.38092839E-01-2.85238766E-02
19 11 1.38824275E-03 3.35585568E-03-4.74409843E-03 5.19793208E-04 8.51973514E-03
19 12 3.90961577E-02-2.11912008E-03-8.59590892E-03 1.07150290E-02-1.71100261E-03
19 13-1.50236771E-02-6.89420552E-02-6.91084433E-03-3.15174119E-02-1.83005027E-03
19 14-1.41738150E-02 1.05297719E-03-3.03150047E-03 1.40229289E-03 1.23033711E-02
19 15 5.64588603E-02 9.22803078E-05
20  1 3.57561441E-02-4.56681503E-02 2.85589081E-02 1.49338726E-02-2.82607218E-02
20  2 6.76655090E-02 3.10509819E-01 1.67030499E-02-9.34056885E-02-4.28628763E-01
20  3-6.26704331E-03-7.89754472E-02-3.62409922E-01 5.56753023E-03-4.71199637E-03
20  4-4.81780278E-03 9.52979915E-03-2.79513584E-05 1.27987057E-01 5.87318981E-01
20  5 5.52874529E-03 5.70029231E-03-1.12290376E-02 4.53183547E-05-2.47293386E-01
20  6-1.13480303E+00 4.09032141E-02 1.87566093E-01-2.20460820E-03 8.39362206E-02
20  7 1.40260193E-03 1.82518722E-02 1.55519035E-03-7.31292926E-02-3.35582541E-01
20  8 4.03099728E-05 3.56498336E-02-4.52339216E-02 2.86883071E-02 1.45193965E-02
20  9-2.82512240E-02-6.76626333E-02-3.10496623E-01-1.66398291E-02 9.34031450E-02
20 10 4.28617091E-01 6.20285462E-03 7.89763439E-02 3.62414036E-01-5.29605122E-03
20 11-4.74652368E-03-4.83678216E-03 9.58330584E-03-2.38439894E-05 1.27984667E-01
20 12 5.87308014E-01 5.61654820E-03 5.76226430E-03-1.13788125E-02 3.84944810E-05
20 13-2.47290049E-01-1.13478772E+00-4.09032092E-02-1.87566772E-01 2.23985708E-03
20 14-8.39362415E-02-1.42778129E-03-1.82520822E-02-1.57730232E-03 7.31294959E-02
20 15 3.35583473E-01-3.94996469E-05
21  1-4.07838796E-12 5.10109612E-12-2.94586472E-12-1.83523037E-12 3.19723338E-12
21  2 3.31562320E-01-7.22532164E-02-1.41616605E-12-4.13142768E-01 9.00310198E-02
21  3 1.36952710E-12-3.61409706E-01 7.87574828E-02-1.17345252E-12 2.69740418E-05
21  4-2.69740416E-05-1.49655510E-13 6.80712664E-05 5.90695492E-01-1.28722857E-01
21  5-3.37229574E-04 3.37229573E-04 2.96368187E-13-8.51027235E-04-1.13346137E+00
21  6 2.47001015E-01 1.87017540E-01-4.06479736E-02 6.86386337E-14-1.83258390E-02
21  7 1.60479005E-04 8.34401801E-02-1.60479006E-04-3.34350540E-01 7.28608183E-02
21  8 4.04982289E-04-3.79016666E-13 4.85429878E-13-2.49990818E-13-4.59882495E-13
21  9 4.31364065E-13-3.31562327E-01 7.22532180E-02-1.98201251E-12 4.13142789E-01
21 10-9.00310245E-02 2.00908094E-12 3.61409697E-01-7.87574809E-02-1.11579837E-12
21 11 2.69740738E-05-2.69740732E-05-6.80301899E-13 6.80713461E-05 5.90695491E-01
21 12-1.28722857E-01-3.37229711E-04 3.37229710E-04 9.07820881E-13-8.51027579E-04
21 13-1.13346137E+00 2.47001015E-01-1.87017539E-01 4.06479732E-02-2.00409881E-13
21 14 1.83258391E-02-1.60478965E-04-8.34401793E-02 1.60478965E-04 3.34350538E-01
21 15-7.28608179E-02-4.04982185E-04
22  1 8.41900211E-01-1.00930268E+00 4.47793658E-01 4.36794016E-01-5.52772985E-01
22  2 3.73053137E-03 1.71190114E-02 7.58687073E-02 3.01941550E-03 1.38557764E-02
22  3-5.54747738E-02 7.57075308E-03 3.47413801E-02 1.74110945E-02-8.37999164E-02
22  4-8.86267396E-02 1.72426656E-01-1.27512370E-03-7.22435201E-03-3.31517825E-02
22  5 9.96719988E-02 1.15511755E-01-2.15183754E-01 4.18446010E-03 1.16482723E-02
22  6 5.34526817E-02-2.14231947E-03-9.57933178E-03-3.62525478E-02-4.38528450E-03
22  7 2.52590335E-02-8.82086816E-04 2.33788632E-02 3.75630999E-03 1.72373067E-02
22  8-4.96693111E-04 8.43261329E-01-1.01111264E+00 4.48325223E-01 4.37148916E-01
22  9-5.52718457E-01-3.74161640E-03-1.71698794E-02-7.59882692E-02-3.00598019E-03
22 10-1.37941232E-02 5.56231705E-02-7.57562613E-03-3.47637420E-02-1.79918798E-02
22 11-8.37907114E-02-8.84917366E-02 1.72282448E-01-1.24189111E-03-7.24133634E-03
22 12-3.32297217E-02 9.95243374E-02 1.15285016E-01-2.14809353E-01 4.16356968E-03
22 13 1.16549880E-02 5.34834994E-02 2.14131052E-03 9.57687762E-03 3.61532648E-02
22 14 4.38331096E-03-2.51939441E-02 8.82292861E-04-2.33107505E-02-3.75516239E-03
22 15-1.72320406E-02 4.97491778E-04
23  1-8.64500723E-01 9.84056129E-01-2.60802033E-01-4.43023006E-01 1.55700762E-01
23  2-4.93553624E-03-2.26486505E-02-8.53050933E-02 3.16781866E-03 1.45367827E-02
23  3 9.04891769E-02-1.23796382E-03-5.68088422E-03-3.76204471E-01-8.06774588E-02
23  4-6.60664302E-02 1.46743889E-01 3.85986152E-03-2.05702125E-03-9.43945159E-03
23  5 1.83542442E-01 1.48029352E-01-3.31571794E-01-9.38165382E-03 4.44486251E-03
23  6 2.03970009E-02 6.92457959E-05 7.10087312E-04-8.35071051E-02 1.59601956E-04
23  7 5.80081588E-02 1.49483124E-04 5.40283793E-02-2.42386108E-04-1.11228406E-03
23  8-1.05135636E-03 8.63129805E-01-9.82775380E-01 2.60073230E-01 4.42120758E-01
23  9-1.54590725E-01-4.95434280E-03-2.27349518E-02-8.50702259E-02 3.21078987E-03
23 10 1.47339730E-02 9.02801428E-02-1.19838001E-03-5.49923829E-03-3.76121868E-01
23 11 8.07801647E-02 6.63098863E-02-1.47090051E-01-3.82267892E-03 2.10172357E-03
23 12 9.64458577E-03-1.83692599E-01-1.48303533E-01 3.31996132E-01 9.34888976E-03
23 13-4.54327445E-03-2.08486029E-02 5.03592143E-05 6.26134935E-04-8.35707436E-02
23 14 1.20963737E-04 5.80565253E-02 1.41857292E-04 5.40653928E-02-2.09421267E-04
23 15-9.61011903E-04-1.05435553E-03
24  1-2.40992715E-01 1.72719789E-01 2.16671749E-01 2.31434585E-02-8.20359958E-02
24  2 3.06453566E-03 1.40628280E-02 3.90512346E-01 4.86225203E-04 2.23123570E-03
24  3-1.90652826E-01 1.06340245E-03 4.87984066E-03-1.78967919E-02-3.52980550E-01