%nproc=24
%mem=15gb
%chk=anthracene.chk
# casscf/tzvp 

mokit{}

0 1
 C                 -5.14440450   -1.36156557   -0.01291600
 C                 -3.77978150   -1.36156557   -0.01291600
 C                 -3.04689050   -0.13034457   -0.01291600
 C                 -3.77088750    1.10140243   -0.01843400
 C                 -5.20312750    1.05991143   -0.01973400
 C                 -5.86691050   -0.13238157   -0.01636300
 C                 -1.64798950   -0.10745557   -0.00802000
 C                 -3.07051050    2.31256943   -0.02015500
 C                 -1.67156950    2.33545343   -0.01453000
 C                 -0.94760050    1.10375043   -0.00711000
 C                  0.48458150    1.14537443    0.00000000
 H                  1.03045150    0.18984743    0.00660100
 C                  1.14831850    2.33772943    0.00104200
 C                  0.42583550    3.56684443   -0.00713000
 C                 -0.93880750    3.56669943   -0.01449700
 H                 -1.09028650   -1.05669257   -0.00370100
 H                 -5.71027650   -2.30484357   -0.01051200
 H                 -3.21045550   -2.30329957   -0.00981000
 H                 -5.74894050    2.01545743   -0.02433800
 H                 -6.96630850   -0.16854657   -0.01779400
 H                 -3.62864950    3.26155043   -0.02442300
 H                  2.24772450    2.37363343    0.00720200
 H                  0.99191550    4.51002143   -0.00603500
 H                 -1.50835050    4.50831643   -0.02076900



