%nproc=8
%mem=10gb
# dmrgscf/def2tzvp 

mokit{}

2 1
 Cu                 1.4    0.0     0.0
 Cu                -1.4    0.0     0.0
 O                  0.0    1.15    0.0
 O                  0.0   -1.15    0.0


