 $CONTRL SCFTYP=GVB RUNTYP=ENERGY ICHARG=0 MULT=1 NOSYM=1 ICUT=11
  MAXIT=500 ISPHER=1 $END
 $SYSTEM MWORDS=125 $END
 $SCF NCO=2 NPAIR=4 DIRSCF=.TRUE. $END
 $GUESS GUESS=MOREAD NORB=28 $END
 $DATA
GAMESS inp file produced by MOKIT,nif=28,nbf=28
C1   1
C     6.         0.00000000         0.00000000         0.00000000
   S  8
   1   6.66500000E+03   6.91583963E-04   0.00000000E+00
   2   1.00000000E+03   5.32579615E-03   0.00000000E+00
   3   2.28000000E+02   2.70607210E-02   0.00000000E+00
   4   6.47100000E+01   1.01656846E-01   0.00000000E+00
   5   2.10600000E+01   2.74574824E-01   0.00000000E+00
   6   7.49500000E+00   4.48294319E-01   0.00000000E+00
   7   2.79700000E+00   2.84902611E-01   0.00000000E+00
   8   5.21500000E-01   1.51948592E-02   0.00000000E+00
   S  8
   1   6.66500000E+03  -2.93269653E-04   0.00000000E+00
   2   1.00000000E+03  -2.31803547E-03   0.00000000E+00
   3   2.28000000E+02  -1.14997860E-02   0.00000000E+00
   4   6.47100000E+01  -4.68267270E-02   0.00000000E+00
   5   2.10600000E+01  -1.28466169E-01   0.00000000E+00
   6   7.49500000E+00  -3.01266272E-01   0.00000000E+00
   7   2.79700000E+00  -2.55630702E-01   0.00000000E+00
   8   5.21500000E-01   1.09379336E+00   0.00000000E+00
   S  1
   1   1.59600000E-01   1.00000000E+00   0.00000000E+00
   P  3
   1   9.43900000E+00   5.69792516E-02   0.00000000E+00
   2   2.00200000E+00   3.13207212E-01   0.00000000E+00
   3   5.45600000E-01   7.60376742E-01   0.00000000E+00
   P  1
   1   1.51700000E-01   1.00000000E+00   0.00000000E+00
   D  1
   1   5.50000000E-01   1.00000000E+00   0.00000000E+00

C     6.         0.00000000         0.00000000         1.24000000
   S  8
   1   6.66500000E+03   6.91583963E-04   0.00000000E+00
   2   1.00000000E+03   5.32579615E-03   0.00000000E+00
   3   2.28000000E+02   2.70607210E-02   0.00000000E+00
   4   6.47100000E+01   1.01656846E-01   0.00000000E+00
   5   2.10600000E+01   2.74574824E-01   0.00000000E+00
   6   7.49500000E+00   4.48294319E-01   0.00000000E+00
   7   2.79700000E+00   2.84902611E-01   0.00000000E+00
   8   5.21500000E-01   1.51948592E-02   0.00000000E+00
   S  8
   1   6.66500000E+03  -2.93269653E-04   0.00000000E+00
   2   1.00000000E+03  -2.31803547E-03   0.00000000E+00
   3   2.28000000E+02  -1.14997860E-02   0.00000000E+00
   4   6.47100000E+01  -4.68267270E-02   0.00000000E+00
   5   2.10600000E+01  -1.28466169E-01   0.00000000E+00
   6   7.49500000E+00  -3.01266272E-01   0.00000000E+00
   7   2.79700000E+00  -2.55630702E-01   0.00000000E+00
   8   5.21500000E-01   1.09379336E+00   0.00000000E+00
   S  1
   1   1.59600000E-01   1.00000000E+00   0.00000000E+00
   P  3
   1   9.43900000E+00   5.69792516E-02   0.00000000E+00
   2   2.00200000E+00   3.13207212E-01   0.00000000E+00
   3   5.45600000E-01   7.60376742E-01   0.00000000E+00
   P  1
   1   1.51700000E-01   1.00000000E+00   0.00000000E+00
   D  1
   1   5.50000000E-01   1.00000000E+00   0.00000000E+00

 $END
 $VEC
 1  1 7.07452345E-01-8.85855594E-03-7.57286343E-03-9.98748454E-05-9.10734642E-05
 1  2-4.95679622E-03 8.72053468E-05 7.95204538E-05-1.08319928E-03 1.16029092E-04
 1  3 1.29776729E-04-2.45805821E-04-8.59169287E-05 2.32831426E-05 2.12313365E-05
 1  4 7.07452344E-01-8.85855594E-03-7.57286342E-03-9.98748454E-05-9.10734642E-05
 1  5 4.95679622E-03 8.72053467E-05 7.95204537E-05 1.08319928E-03 1.16029092E-04
 1  6 1.29776729E-04-2.45805821E-04-8.59169287E-05-2.32831425E-05-2.12313364E-05
 2  1 7.08804213E-01 1.57069956E-03-8.99383962E-03 1.05267302E-04 9.59907151E-05
 2  2 2.39911573E-03 3.38796784E-04 3.08940621E-04-2.16312511E-03-4.29247634E-04
 2  3-4.16778177E-04 8.46025811E-04-7.79288397E-05 4.81558995E-04 4.39122040E-04
 2  4-7.08804213E-01-1.57069956E-03 8.99383962E-03-1.05267302E-04-9.59907151E-05
 2  5 2.39911572E-03-3.38796784E-04-3.08940621E-04-2.16312511E-03 4.29247634E-04
 2  6 4.16778177E-04-8.46025811E-04 7.79288397E-05 4.81558995E-04 4.39122041E-04
 3  1 2.92117429E-05 1.39108728E-03-1.57861611E-05 2.82283673E-01-3.09563696E-01
 3  2 2.50210631E-03 1.69599186E-01-1.85989329E-01 7.83883624E-04-1.24020347E-04
 3  3-1.17776130E-04 2.41796477E-04-3.90237222E-05 3.13195817E-02-3.43463204E-02
 3  4 2.92117320E-05 1.39108430E-03-1.57903556E-05 2.82283673E-01-3.09563696E-01
 3  5-2.50210833E-03 1.69599186E-01-1.85989329E-01-7.83884708E-04-1.24020420E-04
 3  6-1.17776192E-04 2.41796612E-04-3.90237878E-05-3.13195817E-02 3.43463204E-02
 4  1 1.79537288E-10 4.22776018E-10-3.58415774E-10 1.00038155E-03 9.12223821E-04
 4  2-7.90207879E-11-1.15011082E-04-1.04875833E-04 2.25253187E-11-5.51849082E-01
 4  3 5.51849082E-01-2.65278290E-11 5.88678760E-02 2.23871017E-03 2.04142585E-03
 4  4 1.79549195E-10 4.22794862E-10-3.58718393E-10 1.00038530E-03 9.12227240E-04
 4  5 7.90408980E-11-1.15008065E-04-1.04873082E-04-2.23729491E-11-5.51849082E-01
 4  6 5.51849082E-01-2.65434571E-11 5.88678760E-02-2.23870936E-03-2.04142511E-03
 5  1-1.90117368E-03-4.04100276E-01-5.79760002E-01 1.91359164E-09-2.09852157E-09
 5  2 3.55430150E-01 1.14970790E-09-1.26081503E-09 1.95236204E-01-1.05477727E-02
 5  3-9.00979148E-03 1.95575642E-02-9.61173381E-03 2.12314293E-10-2.32832765E-10
 5  4-2.60459465E-04 4.11823660E-02 4.76196421E-02 1.91359232E-09-2.09852190E-09
 5  5-5.26045468E-02 1.14970772E-09-1.26081557E-09-3.29795455E-02 2.93424237E-04
 5  6 2.61814859E-04-5.55239096E-04 1.97545280E-04-2.12314352E-10 2.32832643E-10
 6  1-2.59252661E-15 2.05829739E-15-1.05986899E-13 4.81659893E-01 4.39214047E-01
 6  2-9.15621521E-15 3.78237560E-01 3.44905714E-01-5.49464756E-14-3.74096761E-09
 6  3 3.74097469E-09-7.07407629E-15 3.99063115E-10-2.14095039E-01-1.95228106E-01
 6  4-8.46009180E-16-9.03312371E-15 1.09375723E-13-7.91684810E-02-7.21918297E-02
 6  5-6.07171406E-15-7.29848510E-02-6.65531265E-02-5.79282664E-14-3.74097459E-09
 6  6 3.74096762E-09 6.96473843E-15 3.99063869E-10 9.25824325E-02 8.44236887E-02
 7  1-4.91149978E-03-2.33889311E-01 2.65485878E-03 1.67891577E-03-1.84116696E-03
 7  2-4.20690811E-01 1.00871136E-03-1.10619369E-03-1.31798108E-01 2.08521117E-02
 7  3 1.98022416E-02-4.06543533E-02 6.56124517E-03 1.86276943E-04-2.04278832E-04
 7  4-4.91149979E-03-2.33889314E-01 2.65485439E-03 1.67891577E-03-1.84116696E-03
 7  5 4.20690809E-01 1.00871136E-03-1.10619369E-03 1.31798107E-01 2.08521116E-02
 7  6 1.98022416E-02-4.06543532E-02 6.56124511E-03-1.86276943E-04 2.04278832E-04
 8  1 1.06159300E-12 2.51794396E-12-2.30174397E-12-1.68199205E-01-1.53376801E-01
 8  2-4.86984184E-13 1.93369009E-02 1.76328538E-02 5.05129341E-14-3.28218816E-03
 8  3 3.28218816E-03-1.69452562E-13 3.50123706E-04-3.76404183E-01-3.43233902E-01
 8  4 1.07012614E-12 2.50501239E-12-1.96449213E-12-1.68199201E-01-1.53376797E-01
 8  5 4.60411338E-13 1.93369040E-02 1.76328566E-02-2.20436247E-13-3.28218816E-03
 8  6 3.28218816E-03-1.45746046E-13 3.50123706E-04 3.76404183E-01 3.43233903E-01
 9  1 2.60459432E-04-4.11823674E-02-4.76196417E-02-1.45704802E-11 1.59797193E-11
 9  2-5.26045499E-02-8.75388564E-12 9.60096759E-12-3.29795466E-02-2.93424086E-04
 9  3-2.61814715E-04 5.55238801E-04-1.97545228E-04-1.61650597E-12 1.77306477E-12
 9  4 1.90117364E-03 4.04100275E-01 5.79760002E-01-1.45714604E-11 1.59794695E-11
 9  5 3.55430153E-01-8.75518148E-12 9.60045932E-12 1.95236205E-01 1.05477729E-02
 9  6 9.00979163E-03-1.95575645E-02 9.61173386E-03 1.61675382E-12-1.77282494E-12
10  1 4.52857129E-15 1.44727951E-15 2.71730009E-14 7.91684795E-02 7.21918283E-02
10  2 5.73255834E-15 7.29848509E-02 6.65531265E-02 1.29138339E-14 2.84865661E-11
10  3-2.84891671E-11 2.60094787E-15-3.03808647E-12 9.25824300E-02 8.44236864E-02
10  4-2.75129348E-15 5.97566381E-16-2.70639163E-14-4.81659894E-01-4.39214048E-01
10  5 2.33069033E-15-3.78237560E-01-3.44905714E-01 1.25916089E-14 2.84897301E-11
10  6-2.84863376E-11-3.39252758E-15-3.03888591E-12-2.14095036E-01-1.95228103E-01
11  1 4.14705121E-01 8.04490789E-01-8.96860833E+00-5.20944985E-07-4.75037176E-07
11  2-5.16702905E-01-9.05188466E-06-8.25419545E-06-4.27325139E+00 3.20466181E-01
11  3 3.20379387E-01-6.40845568E-01 5.42421535E-04-8.94372632E-06-8.15556846E-06
11  4-4.14705121E-01-8.04490789E-01 8.96860833E+00 5.20944987E-07 4.75037178E-07
11  5-5.16702905E-01 9.05188465E-06 8.25419544E-06-4.27325139E+00-3.20466181E-01
11  6-3.20379387E-01 6.40845568E-01-5.42421535E-04-8.94372634E-06-8.15556848E-06
12  1 5.97252257E-01 1.37021997E+00 3.36526327E-02 2.08182590E-05 1.89836686E-05
12  2 1.23614941E+00-4.42063796E-04-4.03107320E-04 1.89625739E-01-4.58353725E-01
12  3-4.58271317E-01 9.16625042E-01-5.15020741E-04-3.57599779E-04-3.26086620E-04
12  4-5.97252257E-01-1.37021997E+00-3.36526327E-02-2.08182590E-05-1.89836686E-05
12  5 1.23614941E+00 4.42063796E-04 4.03107320E-04 1.89625739E-01 4.58353725E-01
12  6 4.58271317E-01-9.16625042E-01 5.15020741E-04-3.57599779E-04-3.26086620E-04
13  1-6.48285517E-01-1.34390481E+00 8.54091971E-01-3.22274100E-05-2.93873983E-05
13  2-2.06204471E-01 2.81392421E-05 2.56594967E-05 6.51923852E-01-3.08834662E-01
13  3-3.08703525E-01 6.17538187E-01-8.19543249E-04 7.51295659E-06 6.85088404E-06
13  4-6.48285517E-01-1.34390481E+00 8.54091971E-01-3.22274100E-05-2.93873983E-05
13  5 2.06204471E-01 2.81392422E-05 2.56594967E-05-6.51923852E-01-3.08834662E-01
13  6-3.08703525E-01 6.17538187E-01-8.19543249E-04-7.51295661E-06-6.85088404E-06
14  1-3.36586903E-15-7.23748325E-14 1.89845284E-15 1.02638782E-01-1.12557841E-01
14  2-9.44127659E-14-9.76316158E-01 1.07066780E+00 7.45172081E-15 3.02838566E-14
14  3 3.18516460E-14-6.21355026E-14 1.66377406E-16-5.36190684E-01 5.88008397E-01
14  4 8.27936688E-15 8.24807280E-14-7.89097514E-15-1.02638782E-01 1.12557841E-01
14  5-9.63809407E-14 9.76316158E-01-1.07066780E+00 1.33704071E-14-2.92458951E-14
14  6-2.79145640E-14 5.71604591E-14 4.17574933E-17-5.36190684E-01 5.88008397E-01
15  1 6.06760402E-05-4.75478077E-04 3.87834145E-05 2.33404097E-01 2.12835571E-01
15  2-7.17310897E-04-1.05743005E+00-9.64244977E-01 1.57059022E-04 2.05215577E-04
15  3 2.05227850E-04-4.10443427E-04-7.67026933E-08-5.41112470E-01-4.93427419E-01
15  4-6.06760402E-05 4.75478077E-04-3.87834145E-05-2.33404097E-01-2.12835571E-01
15  5-7.17310897E-04 1.05743005E+00 9.64244977E-01 1.57059022E-04-2.05215577E-04
15  6-2.05227850E-04 4.10443427E-04 7.67026941E-08-5.41112470E-01-4.93427419E-01
16  1-4.59339761E-02-2.63971672E-01 5.42854196E-01-5.81108892E-06-5.29899192E-06
16  2 5.87881219E-01 5.07393050E-06 4.62679492E-06-9.69422776E-01 1.63094419E-01
16  3 1.63149884E-01-3.26244303E-01-3.46630936E-04 1.35469959E-06 1.23531790E-06
16  4-4.59339761E-02-2.63971672E-01 5.42854196E-01-5.81108892E-06-5.29899192E-06
16  5-5.87881219E-01 5.07393050E-06 4.62679492E-06 9.69422776E-01 1.63094419E-01
16  6 1.63149884E-01-3.26244303E-01-3.46630936E-04-1.35469959E-06-1.23531790E-06
17  1-4.12291138E-14-4.07848546E-14 8.72411506E-15 5.22626965E-01-5.73133873E-01
17  2 9.43526865E-14-2.55365683E-01 2.80044339E-01-8.85114134E-14-1.97651000E-14
17  3-2.08525339E-15 2.18503534E-14 1.21779792E-15 5.65021823E-01-6.19625789E-01
17  4 4.09515955E-14 3.99787903E-14-7.87696219E-15-5.22626965E-01 5.73133873E-01
17  5 9.35810727E-14 2.55365683E-01-2.80044339E-01-8.76619156E-14 2.11151898E-15
17  6 2.00647116E-14-2.21762306E-14 5.87830120E-16 5.65021823E-01-6.19625789E-01
18  1 5.17721267E-04 6.88162088E-04-1.36359453E-04-5.09349536E-01-4.64463565E-01
18  2-1.23329101E-03 1.90176836E-01 1.73417673E-01 1.25717646E-03 1.21724428E-04
18  3 1.22465390E-04-2.44189818E-04-4.63069615E-06-7.02678844E-01-6.40755901E-01
18  4-5.17721267E-04-6.88162088E-04 1.36359453E-04 5.09349536E-01 4.64463565E-01
18  5-1.23329101E-03-1.90176836E-01-1.73417673E-01 1.25717646E-03-1.21724428E-04
18  6-1.22465390E-04 2.44189818E-04 4.63069615E-06-7.02678844E-01-6.40755901E-01
19  1-2.15366834E-01-5.75385140E-01 1.09937493E-01-7.54559871E-04-6.88064960E-04
19  2 6.42965252E-01 3.30620708E-05 3.01485055E-05-7.92698247E-01-3.42609603E-02
19  3-3.48109502E-02 6.90719105E-02 3.43720500E-03-1.26216334E-03-1.15093633E-03
19  4 2.15366834E-01 5.75385140E-01-1.09937493E-01 7.54559871E-04 6.88064960E-04
19  5 6.42965252E-01-3.30620708E-05-3.01485055E-05-7.92698247E-01 3.42609603E-02
19  6 3.48109502E-02-6.90719105E-02-3.43720500E-03-1.26216334E-03-1.15093633E-03
20  1 3.28571405E-14-3.43096134E-14 2.15428802E-14 4.78638071E-01-5.24893873E-01
20  2-2.08354693E-15-4.06477067E-01 4.45759197E-01 1.08504562E-14-3.06887120E-15
20  3-9.14444160E-15 1.22133128E-14-5.57562329E-16-9.38467393E-02 1.02916131E-01
20  4 3.27815676E-14-3.42323659E-14 2.35958854E-14 4.78638071E-01-5.24893873E-01
20  5 2.89040869E-15-4.06477067E-01 4.45759197E-01-1.24841482E-14-3.27375934E-15
20  6-8.80877576E-15 1.20825351E-14-3.41468764E-16 9.38467393E-02-1.02916131E-01
21  1-9.64896983E-05 8.97010898E-05-5.89080578E-05-5.13291060E-01-4.68057746E-01
21  2 7.38421790E-06 4.48178164E-01 4.08682865E-01-3.15336886E-05 1.56853595E-05
21  3 1.56245310E-05-3.13098905E-05 3.80151601E-07 1.19660049E-01 1.09115115E-01
21  4-9.64896983E-05 8.97010898E-05-5.89080578E-05-5.13291060E-01-4.68057746E-01
21  5-7.38421790E-06 4.48178164E-01 4.08682865E-01 3.15336886E-05 1.56853594E-05
21  6 1.56245311E-05-3.13098905E-05 3.80151600E-07-1.19660049E-01-1.09115115E-01
22  1 2.76148165E-14-1.96695365E-14 3.86573518E-15-2.69371916E-17 1.12899237E-16
22  2-1.38959615E-15 3.46371961E-17-1.19449710E-16-1.22315626E-14 6.90839419E-01
22  3-6.90839419E-01-2.23753361E-15-7.36945129E-02 1.61023621E-17-5.75990510E-18
22  4-2.75254276E-14 2.01107518E-14-3.75782773E-15-6.69374892E-17 8.28869719E-17
22  5-7.79457833E-16 1.22507931E-17-1.64699086E-16-1.17369513E-14-6.90839419E-01
22  6 6.90839419E-01 2.71779967E-15 7.36945129E-02-1.57437266E-16-1.21141790E-16
23  1-1.06050423E-03-2.21837670E-04-1.78507451E-03-3.33732465E-07-3.04322591E-07
23  2-5.22034135E-04-5.96924596E-07-5.44321152E-07-7.50253805E-03-6.36971235E-02
23  3 6.39393794E-02-2.42255838E-04-7.97674291E-01-1.10223626E-06-1.00510268E-06
23  4 1.06050423E-03 2.21837670E-04 1.78507451E-03 3.33732465E-07 3.04322591E-07
23  5-5.22034135E-04 5.96924596E-07 5.44321152E-07-7.50253805E-03 6.36971235E-02
23  6-6.39393794E-02 2.42255838E-04 7.97674291E-01-1.10223626E-06-1.00510268E-06
24  1 9.40090587E-03-9.86757546E-02 9.83385954E-02-3.18245631E-06-2.90200520E-06
24  2-2.01641736E-02 2.77874979E-06 2.53387496E-06 2.88646533E-01 3.00046461E-01
24  3 3.00119282E-01-6.00165743E-01-4.55103993E-04 7.41904368E-07 6.76524709E-07
24  4 9.40090587E-03-9.86757546E-02 9.83385954E-02-3.18245631E-06-2.90200520E-06
24  5 2.01641736E-02 2.77874979E-06 2.53387496E-06-2.88646533E-01 3.00046461E-01
24  6 3.00119282E-01-6.00165743E-01-4.55103993E-04-7.41904367E-07-6.76524708E-07
25  1-2.87749083E-02 1.35432412E-01-3.02412306E-03-6.94724062E-06-6.33502123E-06
25  2 2.66796400E-01-1.59441402E-05-1.45390772E-05 5.79893015E-02 2.90305396E-01
25  3 2.90439783E-01-5.80745179E-01-8.39859908E-04-2.60745087E-05-2.37767161E-05
25  4 2.87749083E-02-1.35432412E-01 3.02412306E-03 6.94724062E-06 6.33502124E-06
25  5 2.66796400E-01 1.59441402E-05 1.45390772E-05 5.79893015E-02-2.90305396E-01
25  6-2.90439783E-01 5.80745179E-01 8.39859908E-04-2.60745087E-05-2.37767161E-05
26  1-3.26737136E-14 4.16560932E-15-1.86690370E-15-3.28816344E-01 3.60593305E-01
26  2-1.41335508E-14-1.61513591E-01 1.77122338E-01 2.88947876E-15 9.97915842E-15
26  3-4.61429543E-14 3.61637959E-14-3.18397371E-15 2.31147283E-01-2.53485462E-01
26  4 3.27465767E-14-3.99192493E-15 2.33836208E-15 3.28816344E-01-3.60593305E-01
26  5-1.33460456E-14 1.61513591E-01-1.77122338E-01 3.10440910E-15 4.61561243E-14
26  6-9.89584484E-15-3.62602795E-14-3.48277598E-15 2.31147283E-01-2.53485462E-01
27  1 7.22120379E-04 2.21636942E-03 2.49546375E-03-2.45891911E-07-2.24222907E-07
27  2-7.38617494E-03 2.14699600E-07 1.95779390E-07-3.56038349E-03-5.06028577E-02
27  3 5.13500022E-02-7.47144424E-04-6.37162359E-01 5.73231075E-08 5.22715600E-08
27  4 7.22120379E-04 2.21636942E-03 2.49546375E-03-2.45891912E-07-2.24222907E-07
27  5 7.38617494E-03 2.14699600E-07 1.95779390E-07 3.56038349E-03-5.06028577E-02
27  6 5.13500022E-02-7.47144424E-04-6.37162359E-01-5.73231078E-08-5.22715598E-08
28  1 1.93551481E-14-5.70483044E-15 3.70051423E-15-3.42738627E-02 3.75861045E-02
28  2-6.57360040E-16-1.09928131E-01 1.20551635E-01 1.73896345E-15-7.46290952E-15
28  3 4.02654055E-15 3.43636897E-15 7.72600976E-16 3.98790909E-01-4.37330244E-01
28  4 1.93320785E-14-5.82239249E-15 3.10028662E-15-3.42738627E-02 3.75861045E-02
28  5 4.77611761E-16-1.09928131E-01 1.20551635E-01-1.25121455E-15-7.44290962E-15
28  6 4.00097013E-15 3.44193949E-15 8.97401659E-16-3.98790909E-01 4.37330244E-01
 $END
