%chk=c2_uhf.chk
%mem=1GB
%nprocshared=1
#p scf(xqc,maxcycle=512) nosymm int(nobasistransform) UHF/CC-PVDZ guess=mix stable=opt 5D 7F

HF file generated by AutoMR of MOKIT

0 1
C         0.00000000     0.00000000     0.00000000
C         0.00000000     0.00000000     1.24000000


