 $CONTRL SCFTYP=GVB RUNTYP=ENERGY ICHARG=0 MULT=1 NOSYM=1 ICUT=11
  MAXIT=500 ISPHER=1 $END
 $SYSTEM MWORDS=125 $END
 $SCF NCO=2 NPAIR=5 DIRSCF=.TRUE. $END
 $GUESS GUESS=MOREAD NORB=28 $END
 $DATA
GAMESS inp file produced by MOKIT,nif=28,nbf=28
C1   1
N     7.         0.00000000         0.00000000         0.00000000
   S  8
   1   9.04600000E+03   6.99617413E-04   0.00000000E+00
   2   1.35700000E+03   5.38605463E-03   0.00000000E+00
   3   3.09300000E+02   2.73910212E-02   0.00000000E+00
   4   8.77300000E+01   1.03150592E-01   0.00000000E+00
   5   2.85600000E+01   2.78570663E-01   0.00000000E+00
   6   1.02100000E+01   4.48294849E-01   0.00000000E+00
   7   3.83800000E+00   2.78085928E-01   0.00000000E+00
   8   7.46600000E-01   1.54315612E-02   0.00000000E+00
   S  8
   1   9.04600000E+03  -3.04990096E-04   0.00000000E+00
   2   1.35700000E+03  -2.40802638E-03   0.00000000E+00
   3   3.09300000E+02  -1.19444487E-02   0.00000000E+00
   4   8.77300000E+01  -4.89259929E-02   0.00000000E+00
   5   2.85600000E+01  -1.34472725E-01   0.00000000E+00
   6   1.02100000E+01  -3.15112578E-01   0.00000000E+00
   7   3.83800000E+00  -2.42857833E-01   0.00000000E+00
   8   7.46600000E-01   1.09438221E+00   0.00000000E+00
   S  1
   1   2.24800000E-01   1.00000000E+00   0.00000000E+00
   P  3
   1   1.35500000E+01   5.89056768E-02   0.00000000E+00
   2   2.91700000E+00   3.20461107E-01   0.00000000E+00
   3   7.97300000E-01   7.53042062E-01   0.00000000E+00
   P  1
   1   2.18500000E-01   1.00000000E+00   0.00000000E+00
   D  1
   1   8.17000000E-01   1.00000000E+00   0.00000000E+00

N     7.         0.00000000         0.00000000         2.00000000
   S  8
   1   9.04600000E+03   6.99617413E-04   0.00000000E+00
   2   1.35700000E+03   5.38605463E-03   0.00000000E+00
   3   3.09300000E+02   2.73910212E-02   0.00000000E+00
   4   8.77300000E+01   1.03150592E-01   0.00000000E+00
   5   2.85600000E+01   2.78570663E-01   0.00000000E+00
   6   1.02100000E+01   4.48294849E-01   0.00000000E+00
   7   3.83800000E+00   2.78085928E-01   0.00000000E+00
   8   7.46600000E-01   1.54315612E-02   0.00000000E+00
   S  8
   1   9.04600000E+03  -3.04990096E-04   0.00000000E+00
   2   1.35700000E+03  -2.40802638E-03   0.00000000E+00
   3   3.09300000E+02  -1.19444487E-02   0.00000000E+00
   4   8.77300000E+01  -4.89259929E-02   0.00000000E+00
   5   2.85600000E+01  -1.34472725E-01   0.00000000E+00
   6   1.02100000E+01  -3.15112578E-01   0.00000000E+00
   7   3.83800000E+00  -2.42857833E-01   0.00000000E+00
   8   7.46600000E-01   1.09438221E+00   0.00000000E+00
   S  1
   1   2.24800000E-01   1.00000000E+00   0.00000000E+00
   P  3
   1   1.35500000E+01   5.89056768E-02   0.00000000E+00
   2   2.91700000E+00   3.20461107E-01   0.00000000E+00
   3   7.97300000E-01   7.53042062E-01   0.00000000E+00
   P  1
   1   2.18500000E-01   1.00000000E+00   0.00000000E+00
   D  1
   1   8.17000000E-01   1.00000000E+00   0.00000000E+00

 $END
 $VEC
 1  1-7.06926542E-01 1.66222780E-02 2.34242033E-02-3.23134926E-17 2.97411429E-16
 1  2-2.00551267E-03-4.49989532E-17 1.01004892E-17 4.08286791E-04-1.11134008E-06
 1  3-1.11134007E-06 2.22268015E-06-3.95234804E-17 3.96439759E-17 2.46209010E-18
 1  4 7.06903892E-01-1.66829409E-02-2.34124672E-02 1.29807461E-17 3.90161998E-18
 1  5-1.77267797E-03 1.77430008E-18 7.59728828E-18 1.79798416E-04 8.64889290E-05
 1  6 8.64889290E-05-1.72977858E-04 2.01196816E-18-4.28334074E-17-1.01461529E-17
 2  1-7.06337282E-01 2.10158342E-02 2.63620493E-02 5.00502960E-17-1.70932922E-16
 2  2-9.62515073E-04 5.72186930E-17 8.43031457E-17-4.08243929E-04-1.90634282E-04
 2  3-1.90634283E-04 3.81268565E-04 3.25165835E-17-2.86168161E-17-7.04561797E-19
 2  4-7.06163516E-01 2.13584075E-02 2.56737075E-02-1.27362113E-17 3.63294471E-18
 2  5 6.50447411E-04-1.29367851E-18-3.39917758E-19 1.21231641E-03-6.33451415E-05
 2  6-6.33451415E-05 1.26690283E-04-2.08264741E-18 3.53773919E-17 6.74670637E-18
 3  1 8.15143431E-03 4.34424162E-02-2.96867607E-03-7.97254070E-06-6.13892402E-06
 3  2 4.36117367E-01-5.45848721E-06-4.20308149E-06 2.90821109E-01-6.99564950E-03
 3  3-6.99564950E-03 1.39912990E-02 3.64359144E-16-1.35870597E-07-1.04621513E-07
 3  4 8.15143559E-03 4.34424300E-02-2.96865950E-03-7.97254070E-06-6.13892402E-06
 3  5-4.36117366E-01-5.45848722E-06-4.20308149E-06-2.90821109E-01-6.99564945E-03
 3  6-6.99564945E-03 1.39912989E-02-2.12434713E-17 1.35870597E-07 1.04621513E-07
 4  1 7.88238217E-02 2.56479299E-01-6.03518439E-02-8.67373342E-06-6.67884836E-06
 4  2 5.17429235E-01-5.75866220E-06-4.43421878E-06 3.73247760E-01-1.99694602E-03
 4  3-1.99694603E-03 3.99389205E-03 2.73779780E-15-5.82975065E-08-4.48895729E-08
 4  4-7.88238382E-02-2.56479340E-01 6.03518816E-02 8.67373342E-06 6.67884836E-06
 4  5 5.17429234E-01 5.75866221E-06 4.43421878E-06 3.73247764E-01 1.99694455E-03
 4  6 1.99694455E-03-3.99388910E-03-2.03239793E-16-5.82975011E-08-4.48895723E-08
 5  1-4.86268420E-03 1.91224928E-02 2.78132419E-02 7.95914527E-17 3.59238241E-16
 5  2 3.58098493E-02-1.24829711E-16 1.68707783E-16 3.52858841E-02 1.64080750E-03
 5  3 1.64080751E-03-3.28161501E-03-4.66420357E-16 4.48056784E-16 3.13788099E-17
 5  4-5.22762352E-02-4.95386535E-01-5.87819758E-01 3.57790841E-16 1.89443648E-16
 5  5-8.18674368E-02 1.65297435E-16 1.54946473E-16-5.71028921E-02-7.20530040E-05
 5  6-7.20530040E-05 1.44106008E-04 1.64162227E-17-5.01496091E-16-1.23013119E-16
 6  1-3.55461960E-02-3.07260412E-02 2.23825059E-01 8.29574901E-16-5.73019012E-16
 6  2 1.75829618E-01-3.56161226E-15 1.10492634E-15 1.29222393E-01 3.68604101E-02
 6  3 3.68604101E-02-7.37208202E-02-1.79546109E-14 1.71596947E-14 1.16305852E-15
 6  4 6.45583643E-01 1.57360447E+00-1.62100208E+00 1.81187106E-15-1.90363737E-15
 6  5 2.00050193E-01-1.93436360E-15 1.46301235E-15-1.96642799E-02 1.78182643E-02
 6  6 1.78182642E-02-3.56365285E-02 1.59332756E-15-1.95853916E-14-4.24221135E-15
 7  1-5.22762354E-02-4.95386536E-01-5.87819758E-01 2.05027306E-16-1.38862413E-16
 7  2 8.18674251E-02 1.26820499E-16-4.65194241E-17 5.71028842E-02-7.20528155E-05
 7  3-7.20528155E-05 1.44105631E-04 1.55838897E-16-1.54680004E-16 1.71344412E-17
 7  4-4.86268441E-03 1.91224917E-02 2.78132420E-02-4.44315891E-17-4.97546521E-17
 7  5-3.58098376E-02-8.44042963E-18-4.26946869E-17-3.52858763E-02 1.64080769E-03
 7  6 1.64080770E-03-3.28161539E-03-2.62463144E-18 1.69921245E-16 4.97383095E-17
 8  1-6.45583645E-01-1.57360447E+00 1.62100208E+00-1.30786048E-15 6.84118712E-16
 8  2 2.00050179E-01 1.38658282E-15 6.56071526E-16-1.96642899E-02-1.78182642E-02
 8  3-1.78182642E-02 3.56365284E-02-5.48493178E-16 1.26936151E-16 4.26303610E-16
 8  4 3.55461981E-02 3.07260480E-02-2.23825060E-01 4.67524728E-16-1.37933629E-16
 8  5 1.75829604E-01-1.35655080E-16-3.89045182E-16 1.29222383E-01-3.68604102E-02
 8  6-3.68604101E-02 7.37208203E-02 6.63203984E-17 6.19779632E-16 4.67344566E-16
 9  1-1.38505678E-07-7.38154913E-07 5.04424713E-08-1.08826034E-01-4.48697853E-01
 9  2-7.41031936E-06-7.45089346E-02-3.07205894E-01-4.94150762E-06 1.18867076E-07
 9  3 1.18867078E-07-2.37734154E-07-1.48046254E-16-1.85464819E-03-7.64685280E-03
 9  4-1.38505700E-07-7.38155149E-07 5.04421898E-08-1.08826034E-01-4.48697853E-01
 9  5 7.41031934E-06-7.45089346E-02-3.07205894E-01 4.94150761E-06 1.18867077E-07
 9  6 1.18867076E-07-2.37734153E-07-3.41517523E-16 1.85464819E-03 7.64685280E-03
10  1-1.33934059E-06-4.35798630E-06 1.02547266E-06-1.18397389E-01-4.88161266E-01
10  2-8.79193575E-06-7.86063553E-02-3.24099865E-01-6.34206594E-06 3.39312498E-08
10  3 3.39312517E-08-6.78625015E-08-2.62721044E-16-7.95767167E-04-3.28100738E-03
10  4 1.33934087E-06 4.35798700E-06-1.02547330E-06 1.18397389E-01 4.88161266E-01
10  5-8.79193574E-06 7.86063553E-02 3.24099865E-01-6.34206601E-06-3.39312258E-08
10  6-3.39312261E-08 6.78624519E-08-1.06584789E-18-7.95767167E-04-3.28100738E-03
11  1 1.11243274E-07 5.92862118E-07-4.05137593E-08 4.48697853E-01-1.08826034E-01
11  2 5.95172849E-06 3.07205894E-01-7.45089347E-02 3.96885887E-06-9.54701862E-08
11  3-9.54701858E-08 1.90940372E-07-2.97505738E-16 7.64685280E-03-1.85464819E-03
11  4 1.11243292E-07 5.92862307E-07-4.05135328E-08 4.48697853E-01-1.08826034E-01
11  5-5.95172848E-06 3.07205894E-01-7.45089347E-02-3.96885886E-06-9.54701855E-08
11  6-9.54701855E-08 1.90940371E-07 1.69238553E-16-7.64685280E-03 1.85464819E-03
12  1 1.07571498E-06 3.50019344E-06-8.23626427E-07 4.88161266E-01-1.18397389E-01
12  2 7.06139803E-06 3.24099865E-01-7.86063554E-02 5.09374195E-06-2.72524825E-08
12  3-2.72524806E-08 5.45049631E-08-7.60034571E-17 3.28100738E-03-7.95767168E-04
12  4-1.07571521E-06-3.50019401E-06 8.23626940E-07-4.88161266E-01 1.18397389E-01
12  5 7.06139803E-06-3.24099865E-01 7.86063554E-02 5.09374200E-06 2.72524614E-08
12  6 2.72524612E-08-5.45049226E-08 1.34112521E-16 3.28100738E-03-7.95767168E-04
13  1 3.09774405E-01 6.11082660E-01-1.23780781E+00 1.43702630E-15-4.48482574E-16
13  2 6.02070216E-01 9.65274559E-17-2.03697435E-16-1.49244132E+00 1.64836330E-01
13  3 1.64836330E-01-3.29672660E-01-1.97234774E-15 1.85594691E-15 1.08765229E-16
13  4-3.10160995E-01-6.11075845E-01 1.23782072E+00 3.71718880E-16-1.59466874E-16
13  5 6.02098713E-01-9.83013983E-16 4.37261576E-16-1.49246765E+00-1.64831408E-01
13  6-1.64831409E-01 3.29662817E-01 6.88435999E-17-1.97380271E-15-7.42470166E-16
14  1 6.71094675E-17 1.73168530E-16-2.16039961E-16 1.26002092E-01-6.60499942E-01
14  2 1.21683926E-17-1.66330105E-01 8.71898421E-01-4.28519695E-16 1.19274880E-16
14  3-7.44752890E-17-4.47995907E-17-8.76023930E-17-1.99089817E-02 1.04362405E-01
14  4 3.01128181E-16 5.69862444E-16-4.48313543E-16-1.26002092E-01 6.60499942E-01
14  5 6.55155502E-17 1.66330105E-01-8.71898421E-01-2.60512169E-16 3.07111757E-17
14  6 5.16982238E-17-8.24093995E-17-4.34213005E-16-1.99089817E-02 1.04362405E-01
15  1-6.08886031E-16-1.49856810E-15 1.46477904E-15 6.60499942E-01 1.26002092E-01
15  2 5.83286168E-16-8.71898421E-01-1.66330105E-01-5.25381556E-16 5.12127455E-17
15  3-4.47185002E-17-6.49424534E-18-1.11189925E-17-1.04362405E-01-1.99089817E-02
15  4-4.51013926E-16-1.07230137E-15 1.08200780E-15-6.60499942E-01-1.26002092E-01
15  5-2.14817893E-16 8.71898421E-01 1.66330105E-01 3.40606368E-16 7.72979865E-18
15  6 8.09145095E-18-1.58212496E-17-5.59196962E-17-1.04362405E-01-1.99089817E-02
16  1 2.17390324E-02 7.67162743E-02 8.19171965E-02 6.40407204E-15 5.84425087E-16
16  2 7.31125223E-01-5.82082699E-15-4.71668282E-16-6.83679825E-01-3.40801238E-02
16  3-3.40801237E-02 6.81602475E-02-1.00899970E-15 1.80692486E-15 1.56619628E-16
16  4 2.19679892E-02 7.66876068E-02 8.19564684E-02 6.94579626E-15 5.54265836E-16
16  5-7.31100214E-01-6.68097114E-15-8.62274934E-16 6.83619924E-01-3.40822158E-02
16  6-3.40822158E-02 6.81644316E-02-1.46465930E-16-1.70772817E-15-4.78187149E-16
17  1 2.17091652E-16 6.44503342E-16-2.59580712E-16-1.58704331E-01-6.59602672E-01
17  2 1.92261709E-15 1.59201867E-01 6.61670518E-01-2.37788354E-15 1.31531978E-16
17  3-4.32995235E-16 3.01463257E-16-7.05485482E-18-2.13450019E-02-8.87135227E-02
17  4-1.36339555E-16-4.19744425E-16 9.55389715E-16-1.58704331E-01-6.59602672E-01
17  5-2.51552356E-15 1.59201867E-01 6.61670518E-01 2.18941069E-15-3.10821830E-16
17  6-1.47697951E-16 4.58519781E-16-2.15334760E-16 2.13450019E-02 8.87135227E-02
18  1 8.30478291E-16 2.29904438E-15-6.80353951E-16-6.59602672E-01 1.58704331E-01
18  2 7.73665329E-15 6.61670518E-01-1.59201867E-01-7.48957575E-15-5.87600745E-16
18  3-4.48932595E-16 1.03653334E-15-9.05473805E-17-8.87135227E-02 2.13450019E-02
18  4 3.48317614E-15 8.87838299E-15-6.93443776E-15-6.59602672E-01 1.58704331E-01
18  5-5.15810696E-15 6.61670518E-01-1.59201867E-01 4.00765309E-15-6.13741310E-16
18  6-6.14276370E-16 1.22801768E-15 3.84398188E-16 8.87135227E-02-2.13450019E-02
19  1-4.64523216E-02-9.17806057E-02 1.31842359E-01 1.34119309E-15-1.12986845E-16
19  2 1.56209776E-01-3.93571045E-16-1.79200807E-17-9.16428063E-02-3.62643857E-01
19  3-3.62643857E-01 7.25287714E-01 1.02192753E-14-6.26697159E-15-1.12362000E-15
19  4 4.65263391E-02 9.17806003E-02-1.31849607E-01 8.49214626E-16-2.27152521E-16
19  5 1.56220001E-01-8.59905484E-16 4.96615248E-16-9.16515591E-02 3.62637639E-01
19  6 3.62637639E-01-7.25275278E-01-2.08571917E-15 8.11610513E-15 9.00040265E-16
20  1-5.18178115E-17-1.13305420E-16 1.47479799E-16-4.98881005E-02 3.30363110E-02
20  2 1.51146439E-16 3.54025855E-02-2.34438837E-02-2.02161934E-16 1.08130057E-15
20  3-2.01209794E-15 9.30797367E-16 5.91342139E-16-5.95156536E-01 3.94117560E-01
20  4-3.01951835E-17-9.30657316E-17 5.34949912E-17 4.98881005E-02-3.30363110E-02
20  5 1.06301087E-16-3.54025855E-02 2.34438837E-02-4.29779286E-17 3.58741739E-16
20  6 3.68558239E-16-7.27299978E-16-9.11041771E-15-5.95156536E-01 3.94117560E-01
21  1-7.16082502E-16-1.79582074E-15 1.55681676E-15-3.30363110E-02-4.98881005E-02
21  2 1.42832121E-16 2.34438837E-02 3.54025855E-02 2.21898167E-17 4.79943856E-15
21  3-2.42369474E-15-2.37574382E-15 1.16081570E-16-3.94117560E-01-5.95156536E-01
21  4-1.94563716E-15-4.75148244E-15 4.70224185E-15 3.30363110E-02 4.98881005E-02
21  5-4.55883337E-16-2.34438837E-02-3.54025855E-02 4.13894469E-16 1.14952437E-15
21  6 2.29273313E-15-3.44225750E-15 2.59056385E-15-3.94117560E-01-5.95156536E-01
22  1 1.62768542E-15 4.00321280E-15-3.31004481E-15 2.89617882E-16-5.62016846E-17
22  2-3.20476030E-16 1.41888993E-16-1.39465453E-16-5.81120517E-16-4.31389036E-15
22  3-4.31389035E-15 8.62778071E-15 7.08142515E-01 3.84264403E-15-4.81300349E-15
22  4 9.95067811E-15 2.42709742E-14-2.41464072E-14-2.73477134E-16 5.77448217E-16
22  5 2.58732889E-15 3.39136485E-16-1.71895806E-16-2.26686629E-15-1.13581870E-14
22  6-1.13581871E-14 2.27163741E-14-7.08142515E-01 2.92533088E-15-2.57853222E-15
23  1 5.51745217E-15 1.35892456E-14-1.18189533E-14 2.13839286E-16-5.55870225E-16
23  2-1.03059486E-15 2.03617552E-16-8.94213584E-16-1.63514214E-15 6.13269407E-01
23  3-6.13269407E-01 2.64371151E-14 3.65928158E-25 4.18776160E-15 2.26334050E-15
23  4 2.53869254E-14 6.18752469E-14-6.14827220E-14-6.63131442E-16 1.29479769E-16
23  5 6.89628563E-15-4.15329582E-17 1.14952882E-16-6.08522504E-15-6.13269407E-01
23  6 6.13269407E-01 5.76564395E-14-6.42619708E-26 6.58897458E-17 6.94993883E-16
24  1-1.47729693E-15-3.63387465E-15 3.07101143E-15 7.84400415E-17 2.58022885E-16
24  2 2.33244303E-16 5.24196372E-18 1.07205658E-16 6.51000577E-16 4.87576856E-15
24  3 4.87576856E-15-9.75153712E-15-7.06075579E-01 4.14692133E-15-4.63357569E-15
24  4-8.56284506E-15-2.08212184E-14 2.08227240E-14-3.52402952E-16 4.33992845E-16
24  5-2.57065719E-15 1.15790326E-16-1.13518383E-16 2.17426457E-15 9.76777310E-15
24  6 9.76777310E-15-1.95355462E-14-7.06075579E-01 1.55724508E-15-2.32058782E-15
25  1 4.44191508E-15 1.08983123E-14-9.64332625E-15 1.46086612E-16-4.39253866E-16
25  2-1.11672608E-15 2.61384101E-16-6.26257633E-16-9.97597219E-16 6.11479388E-01
25  3-6.11479388E-01 2.38617977E-14-9.13178516E-26 4.13739144E-15 1.53623657E-15
25  4 1.92293223E-14 4.67915675E-14-4.66827792E-14-6.35380368E-16 1.36512820E-16
25  5 5.62570978E-15 4.38366027E-18 1.36855911E-16-4.60508742E-15 6.11479388E-01
25  6-6.11479388E-01 4.57003328E-14 2.18380453E-26-5.98933600E-16 3.28875667E-16
26  1-5.42942545E-15-1.28233748E-14 1.29459948E-14-3.22688197E-02-6.15010683E-02
26  2 3.45787859E-15 1.45506221E-02 2.77319967E-02-2.50838807E-16 1.95977834E-14
26  3 2.55283472E-14-4.51261306E-14 2.69103534E-16 3.21584221E-01 6.12906619E-01
26  4-1.48271835E-14-3.55296290E-14 3.66650485E-14-3.22688197E-02-6.15010683E-02
26  5-7.03234306E-15 1.45506221E-02 2.77319967E-02 3.76389064E-15 2.78332006E-14
26  6 2.78165258E-14-5.56497264E-14-1.17767391E-15-3.21584221E-01-6.12906619E-01
27  1-7.29288463E-15-1.72299653E-14 1.74504873E-14-6.15010683E-02 3.22688197E-02
27  2 4.96082076E-15 2.77319967E-02-1.45506221E-02-2.47514140E-16 2.70983256E-14
27  3 3.30926200E-14-6.01909456E-14 7.69267834E-16 6.12906619E-01-3.21584221E-01
27  4-1.98683512E-14-4.75869884E-14 4.90551933E-14-6.15010683E-02 3.22688197E-02
27  5-9.33890719E-15 2.77319967E-02-1.45506221E-02 5.08738168E-15 3.71297967E-14
27  6 3.77628723E-14-7.48926690E-14 2.58342110E-15-6.12906619E-01 3.21584221E-01
28  1-6.93927127E-02-1.57775886E-01 1.80931985E-01 7.83898022E-15 1.62161064E-15
28  2 7.31686254E-02-3.15226395E-15-9.27867760E-16-1.92436860E-02 3.36847469E-01
28  3 3.36847468E-01-6.73694937E-01 3.31410641E-14-8.52421443E-14-1.09832839E-14
28  4-6.95432684E-02-1.57763814E-01 1.80921116E-01 7.54904215E-15 1.81417809E-15
28  5-7.31716470E-02-3.55462280E-15-7.48095280E-16 1.92579675E-02 3.36856395E-01
28  6 3.36856396E-01-6.73712791E-01-1.31355650E-15 8.87558361E-14 1.66194796E-14
 $END
