%chk=N2_uhf.chk
%mem=1GB
%nprocshared=1
#p scf(xqc,maxcycle=512) nosymm int(nobasistransform) guess(fragment=2) UHF/CC-PVDZ 5D 7F

HF file generated by AutoMR of MOKIT

0 1 0 4 0 -4
N(fragment=1)       0.00000000     0.00000000     0.00000000
N(fragment=2)       0.00000000     0.00000000     2.00000000

--Link1--
%chk=N2_uhf.chk
%mem=1GB
%nprocshared=1
#p scf(xqc,maxcycle=512) UHF chkbasis stable=opt nosymm guess=read geom=allcheck int(nobasistransform)


